c Ramsey Resonance SAT Instance
c R_ψ(3,3) ≤ 4
c f0 = 141.7001 Hz, eps = 0.037, grid = 128
c Generated with Tseytin encoding
p cnf 1286 35602
1 2 3 4 5 6 7 8 9 10 11 12 13 14 15 16 17 18 19 20 21 22 23 24 25 26 27 28 29 30 31 32 33 34 35 36 37 38 39 40 41 42 43 44 45 46 47 48 49 50 51 52 53 54 55 56 57 58 59 60 61 62 63 64 65 66 67 68 69 70 71 72 73 74 75 76 77 78 79 80 81 82 83 84 85 86 87 88 89 90 91 92 93 94 95 96 97 98 99 100 101 102 103 104 105 106 107 108 109 110 111 112 113 114 115 116 117 118 119 120 121 122 123 124 125 126 127 128 0
-1 -2 0
-1 -3 0
-1 -4 0
-1 -5 0
-1 -6 0
-1 -7 0
-1 -8 0
-1 -9 0
-1 -10 0
-1 -11 0
-1 -12 0
-1 -13 0
-1 -14 0
-1 -15 0
-1 -16 0
-1 -17 0
-1 -18 0
-1 -19 0
-1 -20 0
-1 -21 0
-1 -22 0
-1 -23 0
-1 -24 0
-1 -25 0
-1 -26 0
-1 -27 0
-1 -28 0
-1 -29 0
-1 -30 0
-1 -31 0
-1 -32 0
-1 -33 0
-1 -34 0
-1 -35 0
-1 -36 0
-1 -37 0
-1 -38 0
-1 -39 0
-1 -40 0
-1 -41 0
-1 -42 0
-1 -43 0
-1 -44 0
-1 -45 0
-1 -46 0
-1 -47 0
-1 -48 0
-1 -49 0
-1 -50 0
-1 -51 0
-1 -52 0
-1 -53 0
-1 -54 0
-1 -55 0
-1 -56 0
-1 -57 0
-1 -58 0
-1 -59 0
-1 -60 0
-1 -61 0
-1 -62 0
-1 -63 0
-1 -64 0
-1 -65 0
-1 -66 0
-1 -67 0
-1 -68 0
-1 -69 0
-1 -70 0
-1 -71 0
-1 -72 0
-1 -73 0
-1 -74 0
-1 -75 0
-1 -76 0
-1 -77 0
-1 -78 0
-1 -79 0
-1 -80 0
-1 -81 0
-1 -82 0
-1 -83 0
-1 -84 0
-1 -85 0
-1 -86 0
-1 -87 0
-1 -88 0
-1 -89 0
-1 -90 0
-1 -91 0
-1 -92 0
-1 -93 0
-1 -94 0
-1 -95 0
-1 -96 0
-1 -97 0
-1 -98 0
-1 -99 0
-1 -100 0
-1 -101 0
-1 -102 0
-1 -103 0
-1 -104 0
-1 -105 0
-1 -106 0
-1 -107 0
-1 -108 0
-1 -109 0
-1 -110 0
-1 -111 0
-1 -112 0
-1 -113 0
-1 -114 0
-1 -115 0
-1 -116 0
-1 -117 0
-1 -118 0
-1 -119 0
-1 -120 0
-1 -121 0
-1 -122 0
-1 -123 0
-1 -124 0
-1 -125 0
-1 -126 0
-1 -127 0
-1 -128 0
-2 -3 0
-2 -4 0
-2 -5 0
-2 -6 0
-2 -7 0
-2 -8 0
-2 -9 0
-2 -10 0
-2 -11 0
-2 -12 0
-2 -13 0
-2 -14 0
-2 -15 0
-2 -16 0
-2 -17 0
-2 -18 0
-2 -19 0
-2 -20 0
-2 -21 0
-2 -22 0
-2 -23 0
-2 -24 0
-2 -25 0
-2 -26 0
-2 -27 0
-2 -28 0
-2 -29 0
-2 -30 0
-2 -31 0
-2 -32 0
-2 -33 0
-2 -34 0
-2 -35 0
-2 -36 0
-2 -37 0
-2 -38 0
-2 -39 0
-2 -40 0
-2 -41 0
-2 -42 0
-2 -43 0
-2 -44 0
-2 -45 0
-2 -46 0
-2 -47 0
-2 -48 0
-2 -49 0
-2 -50 0
-2 -51 0
-2 -52 0
-2 -53 0
-2 -54 0
-2 -55 0
-2 -56 0
-2 -57 0
-2 -58 0
-2 -59 0
-2 -60 0
-2 -61 0
-2 -62 0
-2 -63 0
-2 -64 0
-2 -65 0
-2 -66 0
-2 -67 0
-2 -68 0
-2 -69 0
-2 -70 0
-2 -71 0
-2 -72 0
-2 -73 0
-2 -74 0
-2 -75 0
-2 -76 0
-2 -77 0
-2 -78 0
-2 -79 0
-2 -80 0
-2 -81 0
-2 -82 0
-2 -83 0
-2 -84 0
-2 -85 0
-2 -86 0
-2 -87 0
-2 -88 0
-2 -89 0
-2 -90 0
-2 -91 0
-2 -92 0
-2 -93 0
-2 -94 0
-2 -95 0
-2 -96 0
-2 -97 0
-2 -98 0
-2 -99 0
-2 -100 0
-2 -101 0
-2 -102 0
-2 -103 0
-2 -104 0
-2 -105 0
-2 -106 0
-2 -107 0
-2 -108 0
-2 -109 0
-2 -110 0
-2 -111 0
-2 -112 0
-2 -113 0
-2 -114 0
-2 -115 0
-2 -116 0
-2 -117 0
-2 -118 0
-2 -119 0
-2 -120 0
-2 -121 0
-2 -122 0
-2 -123 0
-2 -124 0
-2 -125 0
-2 -126 0
-2 -127 0
-2 -128 0
-3 -4 0
-3 -5 0
-3 -6 0
-3 -7 0
-3 -8 0
-3 -9 0
-3 -10 0
-3 -11 0
-3 -12 0
-3 -13 0
-3 -14 0
-3 -15 0
-3 -16 0
-3 -17 0
-3 -18 0
-3 -19 0
-3 -20 0
-3 -21 0
-3 -22 0
-3 -23 0
-3 -24 0
-3 -25 0
-3 -26 0
-3 -27 0
-3 -28 0
-3 -29 0
-3 -30 0
-3 -31 0
-3 -32 0
-3 -33 0
-3 -34 0
-3 -35 0
-3 -36 0
-3 -37 0
-3 -38 0
-3 -39 0
-3 -40 0
-3 -41 0
-3 -42 0
-3 -43 0
-3 -44 0
-3 -45 0
-3 -46 0
-3 -47 0
-3 -48 0
-3 -49 0
-3 -50 0
-3 -51 0
-3 -52 0
-3 -53 0
-3 -54 0
-3 -55 0
-3 -56 0
-3 -57 0
-3 -58 0
-3 -59 0
-3 -60 0
-3 -61 0
-3 -62 0
-3 -63 0
-3 -64 0
-3 -65 0
-3 -66 0
-3 -67 0
-3 -68 0
-3 -69 0
-3 -70 0
-3 -71 0
-3 -72 0
-3 -73 0
-3 -74 0
-3 -75 0
-3 -76 0
-3 -77 0
-3 -78 0
-3 -79 0
-3 -80 0
-3 -81 0
-3 -82 0
-3 -83 0
-3 -84 0
-3 -85 0
-3 -86 0
-3 -87 0
-3 -88 0
-3 -89 0
-3 -90 0
-3 -91 0
-3 -92 0
-3 -93 0
-3 -94 0
-3 -95 0
-3 -96 0
-3 -97 0
-3 -98 0
-3 -99 0
-3 -100 0
-3 -101 0
-3 -102 0
-3 -103 0
-3 -104 0
-3 -105 0
-3 -106 0
-3 -107 0
-3 -108 0
-3 -109 0
-3 -110 0
-3 -111 0
-3 -112 0
-3 -113 0
-3 -114 0
-3 -115 0
-3 -116 0
-3 -117 0
-3 -118 0
-3 -119 0
-3 -120 0
-3 -121 0
-3 -122 0
-3 -123 0
-3 -124 0
-3 -125 0
-3 -126 0
-3 -127 0
-3 -128 0
-4 -5 0
-4 -6 0
-4 -7 0
-4 -8 0
-4 -9 0
-4 -10 0
-4 -11 0
-4 -12 0
-4 -13 0
-4 -14 0
-4 -15 0
-4 -16 0
-4 -17 0
-4 -18 0
-4 -19 0
-4 -20 0
-4 -21 0
-4 -22 0
-4 -23 0
-4 -24 0
-4 -25 0
-4 -26 0
-4 -27 0
-4 -28 0
-4 -29 0
-4 -30 0
-4 -31 0
-4 -32 0
-4 -33 0
-4 -34 0
-4 -35 0
-4 -36 0
-4 -37 0
-4 -38 0
-4 -39 0
-4 -40 0
-4 -41 0
-4 -42 0
-4 -43 0
-4 -44 0
-4 -45 0
-4 -46 0
-4 -47 0
-4 -48 0
-4 -49 0
-4 -50 0
-4 -51 0
-4 -52 0
-4 -53 0
-4 -54 0
-4 -55 0
-4 -56 0
-4 -57 0
-4 -58 0
-4 -59 0
-4 -60 0
-4 -61 0
-4 -62 0
-4 -63 0
-4 -64 0
-4 -65 0
-4 -66 0
-4 -67 0
-4 -68 0
-4 -69 0
-4 -70 0
-4 -71 0
-4 -72 0
-4 -73 0
-4 -74 0
-4 -75 0
-4 -76 0
-4 -77 0
-4 -78 0
-4 -79 0
-4 -80 0
-4 -81 0
-4 -82 0
-4 -83 0
-4 -84 0
-4 -85 0
-4 -86 0
-4 -87 0
-4 -88 0
-4 -89 0
-4 -90 0
-4 -91 0
-4 -92 0
-4 -93 0
-4 -94 0
-4 -95 0
-4 -96 0
-4 -97 0
-4 -98 0
-4 -99 0
-4 -100 0
-4 -101 0
-4 -102 0
-4 -103 0
-4 -104 0
-4 -105 0
-4 -106 0
-4 -107 0
-4 -108 0
-4 -109 0
-4 -110 0
-4 -111 0
-4 -112 0
-4 -113 0
-4 -114 0
-4 -115 0
-4 -116 0
-4 -117 0
-4 -118 0
-4 -119 0
-4 -120 0
-4 -121 0
-4 -122 0
-4 -123 0
-4 -124 0
-4 -125 0
-4 -126 0
-4 -127 0
-4 -128 0
-5 -6 0
-5 -7 0
-5 -8 0
-5 -9 0
-5 -10 0
-5 -11 0
-5 -12 0
-5 -13 0
-5 -14 0
-5 -15 0
-5 -16 0
-5 -17 0
-5 -18 0
-5 -19 0
-5 -20 0
-5 -21 0
-5 -22 0
-5 -23 0
-5 -24 0
-5 -25 0
-5 -26 0
-5 -27 0
-5 -28 0
-5 -29 0
-5 -30 0
-5 -31 0
-5 -32 0
-5 -33 0
-5 -34 0
-5 -35 0
-5 -36 0
-5 -37 0
-5 -38 0
-5 -39 0
-5 -40 0
-5 -41 0
-5 -42 0
-5 -43 0
-5 -44 0
-5 -45 0
-5 -46 0
-5 -47 0
-5 -48 0
-5 -49 0
-5 -50 0
-5 -51 0
-5 -52 0
-5 -53 0
-5 -54 0
-5 -55 0
-5 -56 0
-5 -57 0
-5 -58 0
-5 -59 0
-5 -60 0
-5 -61 0
-5 -62 0
-5 -63 0
-5 -64 0
-5 -65 0
-5 -66 0
-5 -67 0
-5 -68 0
-5 -69 0
-5 -70 0
-5 -71 0
-5 -72 0
-5 -73 0
-5 -74 0
-5 -75 0
-5 -76 0
-5 -77 0
-5 -78 0
-5 -79 0
-5 -80 0
-5 -81 0
-5 -82 0
-5 -83 0
-5 -84 0
-5 -85 0
-5 -86 0
-5 -87 0
-5 -88 0
-5 -89 0
-5 -90 0
-5 -91 0
-5 -92 0
-5 -93 0
-5 -94 0
-5 -95 0
-5 -96 0
-5 -97 0
-5 -98 0
-5 -99 0
-5 -100 0
-5 -101 0
-5 -102 0
-5 -103 0
-5 -104 0
-5 -105 0
-5 -106 0
-5 -107 0
-5 -108 0
-5 -109 0
-5 -110 0
-5 -111 0
-5 -112 0
-5 -113 0
-5 -114 0
-5 -115 0
-5 -116 0
-5 -117 0
-5 -118 0
-5 -119 0
-5 -120 0
-5 -121 0
-5 -122 0
-5 -123 0
-5 -124 0
-5 -125 0
-5 -126 0
-5 -127 0
-5 -128 0
-6 -7 0
-6 -8 0
-6 -9 0
-6 -10 0
-6 -11 0
-6 -12 0
-6 -13 0
-6 -14 0
-6 -15 0
-6 -16 0
-6 -17 0
-6 -18 0
-6 -19 0
-6 -20 0
-6 -21 0
-6 -22 0
-6 -23 0
-6 -24 0
-6 -25 0
-6 -26 0
-6 -27 0
-6 -28 0
-6 -29 0
-6 -30 0
-6 -31 0
-6 -32 0
-6 -33 0
-6 -34 0
-6 -35 0
-6 -36 0
-6 -37 0
-6 -38 0
-6 -39 0
-6 -40 0
-6 -41 0
-6 -42 0
-6 -43 0
-6 -44 0
-6 -45 0
-6 -46 0
-6 -47 0
-6 -48 0
-6 -49 0
-6 -50 0
-6 -51 0
-6 -52 0
-6 -53 0
-6 -54 0
-6 -55 0
-6 -56 0
-6 -57 0
-6 -58 0
-6 -59 0
-6 -60 0
-6 -61 0
-6 -62 0
-6 -63 0
-6 -64 0
-6 -65 0
-6 -66 0
-6 -67 0
-6 -68 0
-6 -69 0
-6 -70 0
-6 -71 0
-6 -72 0
-6 -73 0
-6 -74 0
-6 -75 0
-6 -76 0
-6 -77 0
-6 -78 0
-6 -79 0
-6 -80 0
-6 -81 0
-6 -82 0
-6 -83 0
-6 -84 0
-6 -85 0
-6 -86 0
-6 -87 0
-6 -88 0
-6 -89 0
-6 -90 0
-6 -91 0
-6 -92 0
-6 -93 0
-6 -94 0
-6 -95 0
-6 -96 0
-6 -97 0
-6 -98 0
-6 -99 0
-6 -100 0
-6 -101 0
-6 -102 0
-6 -103 0
-6 -104 0
-6 -105 0
-6 -106 0
-6 -107 0
-6 -108 0
-6 -109 0
-6 -110 0
-6 -111 0
-6 -112 0
-6 -113 0
-6 -114 0
-6 -115 0
-6 -116 0
-6 -117 0
-6 -118 0
-6 -119 0
-6 -120 0
-6 -121 0
-6 -122 0
-6 -123 0
-6 -124 0
-6 -125 0
-6 -126 0
-6 -127 0
-6 -128 0
-7 -8 0
-7 -9 0
-7 -10 0
-7 -11 0
-7 -12 0
-7 -13 0
-7 -14 0
-7 -15 0
-7 -16 0
-7 -17 0
-7 -18 0
-7 -19 0
-7 -20 0
-7 -21 0
-7 -22 0
-7 -23 0
-7 -24 0
-7 -25 0
-7 -26 0
-7 -27 0
-7 -28 0
-7 -29 0
-7 -30 0
-7 -31 0
-7 -32 0
-7 -33 0
-7 -34 0
-7 -35 0
-7 -36 0
-7 -37 0
-7 -38 0
-7 -39 0
-7 -40 0
-7 -41 0
-7 -42 0
-7 -43 0
-7 -44 0
-7 -45 0
-7 -46 0
-7 -47 0
-7 -48 0
-7 -49 0
-7 -50 0
-7 -51 0
-7 -52 0
-7 -53 0
-7 -54 0
-7 -55 0
-7 -56 0
-7 -57 0
-7 -58 0
-7 -59 0
-7 -60 0
-7 -61 0
-7 -62 0
-7 -63 0
-7 -64 0
-7 -65 0
-7 -66 0
-7 -67 0
-7 -68 0
-7 -69 0
-7 -70 0
-7 -71 0
-7 -72 0
-7 -73 0
-7 -74 0
-7 -75 0
-7 -76 0
-7 -77 0
-7 -78 0
-7 -79 0
-7 -80 0
-7 -81 0
-7 -82 0
-7 -83 0
-7 -84 0
-7 -85 0
-7 -86 0
-7 -87 0
-7 -88 0
-7 -89 0
-7 -90 0
-7 -91 0
-7 -92 0
-7 -93 0
-7 -94 0
-7 -95 0
-7 -96 0
-7 -97 0
-7 -98 0
-7 -99 0
-7 -100 0
-7 -101 0
-7 -102 0
-7 -103 0
-7 -104 0
-7 -105 0
-7 -106 0
-7 -107 0
-7 -108 0
-7 -109 0
-7 -110 0
-7 -111 0
-7 -112 0
-7 -113 0
-7 -114 0
-7 -115 0
-7 -116 0
-7 -117 0
-7 -118 0
-7 -119 0
-7 -120 0
-7 -121 0
-7 -122 0
-7 -123 0
-7 -124 0
-7 -125 0
-7 -126 0
-7 -127 0
-7 -128 0
-8 -9 0
-8 -10 0
-8 -11 0
-8 -12 0
-8 -13 0
-8 -14 0
-8 -15 0
-8 -16 0
-8 -17 0
-8 -18 0
-8 -19 0
-8 -20 0
-8 -21 0
-8 -22 0
-8 -23 0
-8 -24 0
-8 -25 0
-8 -26 0
-8 -27 0
-8 -28 0
-8 -29 0
-8 -30 0
-8 -31 0
-8 -32 0
-8 -33 0
-8 -34 0
-8 -35 0
-8 -36 0
-8 -37 0
-8 -38 0
-8 -39 0
-8 -40 0
-8 -41 0
-8 -42 0
-8 -43 0
-8 -44 0
-8 -45 0
-8 -46 0
-8 -47 0
-8 -48 0
-8 -49 0
-8 -50 0
-8 -51 0
-8 -52 0
-8 -53 0
-8 -54 0
-8 -55 0
-8 -56 0
-8 -57 0
-8 -58 0
-8 -59 0
-8 -60 0
-8 -61 0
-8 -62 0
-8 -63 0
-8 -64 0
-8 -65 0
-8 -66 0
-8 -67 0
-8 -68 0
-8 -69 0
-8 -70 0
-8 -71 0
-8 -72 0
-8 -73 0
-8 -74 0
-8 -75 0
-8 -76 0
-8 -77 0
-8 -78 0
-8 -79 0
-8 -80 0
-8 -81 0
-8 -82 0
-8 -83 0
-8 -84 0
-8 -85 0
-8 -86 0
-8 -87 0
-8 -88 0
-8 -89 0
-8 -90 0
-8 -91 0
-8 -92 0
-8 -93 0
-8 -94 0
-8 -95 0
-8 -96 0
-8 -97 0
-8 -98 0
-8 -99 0
-8 -100 0
-8 -101 0
-8 -102 0
-8 -103 0
-8 -104 0
-8 -105 0
-8 -106 0
-8 -107 0
-8 -108 0
-8 -109 0
-8 -110 0
-8 -111 0
-8 -112 0
-8 -113 0
-8 -114 0
-8 -115 0
-8 -116 0
-8 -117 0
-8 -118 0
-8 -119 0
-8 -120 0
-8 -121 0
-8 -122 0
-8 -123 0
-8 -124 0
-8 -125 0
-8 -126 0
-8 -127 0
-8 -128 0
-9 -10 0
-9 -11 0
-9 -12 0
-9 -13 0
-9 -14 0
-9 -15 0
-9 -16 0
-9 -17 0
-9 -18 0
-9 -19 0
-9 -20 0
-9 -21 0
-9 -22 0
-9 -23 0
-9 -24 0
-9 -25 0
-9 -26 0
-9 -27 0
-9 -28 0
-9 -29 0
-9 -30 0
-9 -31 0
-9 -32 0
-9 -33 0
-9 -34 0
-9 -35 0
-9 -36 0
-9 -37 0
-9 -38 0
-9 -39 0
-9 -40 0
-9 -41 0
-9 -42 0
-9 -43 0
-9 -44 0
-9 -45 0
-9 -46 0
-9 -47 0
-9 -48 0
-9 -49 0
-9 -50 0
-9 -51 0
-9 -52 0
-9 -53 0
-9 -54 0
-9 -55 0
-9 -56 0
-9 -57 0
-9 -58 0
-9 -59 0
-9 -60 0
-9 -61 0
-9 -62 0
-9 -63 0
-9 -64 0
-9 -65 0
-9 -66 0
-9 -67 0
-9 -68 0
-9 -69 0
-9 -70 0
-9 -71 0
-9 -72 0
-9 -73 0
-9 -74 0
-9 -75 0
-9 -76 0
-9 -77 0
-9 -78 0
-9 -79 0
-9 -80 0
-9 -81 0
-9 -82 0
-9 -83 0
-9 -84 0
-9 -85 0
-9 -86 0
-9 -87 0
-9 -88 0
-9 -89 0
-9 -90 0
-9 -91 0
-9 -92 0
-9 -93 0
-9 -94 0
-9 -95 0
-9 -96 0
-9 -97 0
-9 -98 0
-9 -99 0
-9 -100 0
-9 -101 0
-9 -102 0
-9 -103 0
-9 -104 0
-9 -105 0
-9 -106 0
-9 -107 0
-9 -108 0
-9 -109 0
-9 -110 0
-9 -111 0
-9 -112 0
-9 -113 0
-9 -114 0
-9 -115 0
-9 -116 0
-9 -117 0
-9 -118 0
-9 -119 0
-9 -120 0
-9 -121 0
-9 -122 0
-9 -123 0
-9 -124 0
-9 -125 0
-9 -126 0
-9 -127 0
-9 -128 0
-10 -11 0
-10 -12 0
-10 -13 0
-10 -14 0
-10 -15 0
-10 -16 0
-10 -17 0
-10 -18 0
-10 -19 0
-10 -20 0
-10 -21 0
-10 -22 0
-10 -23 0
-10 -24 0
-10 -25 0
-10 -26 0
-10 -27 0
-10 -28 0
-10 -29 0
-10 -30 0
-10 -31 0
-10 -32 0
-10 -33 0
-10 -34 0
-10 -35 0
-10 -36 0
-10 -37 0
-10 -38 0
-10 -39 0
-10 -40 0
-10 -41 0
-10 -42 0
-10 -43 0
-10 -44 0
-10 -45 0
-10 -46 0
-10 -47 0
-10 -48 0
-10 -49 0
-10 -50 0
-10 -51 0
-10 -52 0
-10 -53 0
-10 -54 0
-10 -55 0
-10 -56 0
-10 -57 0
-10 -58 0
-10 -59 0
-10 -60 0
-10 -61 0
-10 -62 0
-10 -63 0
-10 -64 0
-10 -65 0
-10 -66 0
-10 -67 0
-10 -68 0
-10 -69 0
-10 -70 0
-10 -71 0
-10 -72 0
-10 -73 0
-10 -74 0
-10 -75 0
-10 -76 0
-10 -77 0
-10 -78 0
-10 -79 0
-10 -80 0
-10 -81 0
-10 -82 0
-10 -83 0
-10 -84 0
-10 -85 0
-10 -86 0
-10 -87 0
-10 -88 0
-10 -89 0
-10 -90 0
-10 -91 0
-10 -92 0
-10 -93 0
-10 -94 0
-10 -95 0
-10 -96 0
-10 -97 0
-10 -98 0
-10 -99 0
-10 -100 0
-10 -101 0
-10 -102 0
-10 -103 0
-10 -104 0
-10 -105 0
-10 -106 0
-10 -107 0
-10 -108 0
-10 -109 0
-10 -110 0
-10 -111 0
-10 -112 0
-10 -113 0
-10 -114 0
-10 -115 0
-10 -116 0
-10 -117 0
-10 -118 0
-10 -119 0
-10 -120 0
-10 -121 0
-10 -122 0
-10 -123 0
-10 -124 0
-10 -125 0
-10 -126 0
-10 -127 0
-10 -128 0
-11 -12 0
-11 -13 0
-11 -14 0
-11 -15 0
-11 -16 0
-11 -17 0
-11 -18 0
-11 -19 0
-11 -20 0
-11 -21 0
-11 -22 0
-11 -23 0
-11 -24 0
-11 -25 0
-11 -26 0
-11 -27 0
-11 -28 0
-11 -29 0
-11 -30 0
-11 -31 0
-11 -32 0
-11 -33 0
-11 -34 0
-11 -35 0
-11 -36 0
-11 -37 0
-11 -38 0
-11 -39 0
-11 -40 0
-11 -41 0
-11 -42 0
-11 -43 0
-11 -44 0
-11 -45 0
-11 -46 0
-11 -47 0
-11 -48 0
-11 -49 0
-11 -50 0
-11 -51 0
-11 -52 0
-11 -53 0
-11 -54 0
-11 -55 0
-11 -56 0
-11 -57 0
-11 -58 0
-11 -59 0
-11 -60 0
-11 -61 0
-11 -62 0
-11 -63 0
-11 -64 0
-11 -65 0
-11 -66 0
-11 -67 0
-11 -68 0
-11 -69 0
-11 -70 0
-11 -71 0
-11 -72 0
-11 -73 0
-11 -74 0
-11 -75 0
-11 -76 0
-11 -77 0
-11 -78 0
-11 -79 0
-11 -80 0
-11 -81 0
-11 -82 0
-11 -83 0
-11 -84 0
-11 -85 0
-11 -86 0
-11 -87 0
-11 -88 0
-11 -89 0
-11 -90 0
-11 -91 0
-11 -92 0
-11 -93 0
-11 -94 0
-11 -95 0
-11 -96 0
-11 -97 0
-11 -98 0
-11 -99 0
-11 -100 0
-11 -101 0
-11 -102 0
-11 -103 0
-11 -104 0
-11 -105 0
-11 -106 0
-11 -107 0
-11 -108 0
-11 -109 0
-11 -110 0
-11 -111 0
-11 -112 0
-11 -113 0
-11 -114 0
-11 -115 0
-11 -116 0
-11 -117 0
-11 -118 0
-11 -119 0
-11 -120 0
-11 -121 0
-11 -122 0
-11 -123 0
-11 -124 0
-11 -125 0
-11 -126 0
-11 -127 0
-11 -128 0
-12 -13 0
-12 -14 0
-12 -15 0
-12 -16 0
-12 -17 0
-12 -18 0
-12 -19 0
-12 -20 0
-12 -21 0
-12 -22 0
-12 -23 0
-12 -24 0
-12 -25 0
-12 -26 0
-12 -27 0
-12 -28 0
-12 -29 0
-12 -30 0
-12 -31 0
-12 -32 0
-12 -33 0
-12 -34 0
-12 -35 0
-12 -36 0
-12 -37 0
-12 -38 0
-12 -39 0
-12 -40 0
-12 -41 0
-12 -42 0
-12 -43 0
-12 -44 0
-12 -45 0
-12 -46 0
-12 -47 0
-12 -48 0
-12 -49 0
-12 -50 0
-12 -51 0
-12 -52 0
-12 -53 0
-12 -54 0
-12 -55 0
-12 -56 0
-12 -57 0
-12 -58 0
-12 -59 0
-12 -60 0
-12 -61 0
-12 -62 0
-12 -63 0
-12 -64 0
-12 -65 0
-12 -66 0
-12 -67 0
-12 -68 0
-12 -69 0
-12 -70 0
-12 -71 0
-12 -72 0
-12 -73 0
-12 -74 0
-12 -75 0
-12 -76 0
-12 -77 0
-12 -78 0
-12 -79 0
-12 -80 0
-12 -81 0
-12 -82 0
-12 -83 0
-12 -84 0
-12 -85 0
-12 -86 0
-12 -87 0
-12 -88 0
-12 -89 0
-12 -90 0
-12 -91 0
-12 -92 0
-12 -93 0
-12 -94 0
-12 -95 0
-12 -96 0
-12 -97 0
-12 -98 0
-12 -99 0
-12 -100 0
-12 -101 0
-12 -102 0
-12 -103 0
-12 -104 0
-12 -105 0
-12 -106 0
-12 -107 0
-12 -108 0
-12 -109 0
-12 -110 0
-12 -111 0
-12 -112 0
-12 -113 0
-12 -114 0
-12 -115 0
-12 -116 0
-12 -117 0
-12 -118 0
-12 -119 0
-12 -120 0
-12 -121 0
-12 -122 0
-12 -123 0
-12 -124 0
-12 -125 0
-12 -126 0
-12 -127 0
-12 -128 0
-13 -14 0
-13 -15 0
-13 -16 0
-13 -17 0
-13 -18 0
-13 -19 0
-13 -20 0
-13 -21 0
-13 -22 0
-13 -23 0
-13 -24 0
-13 -25 0
-13 -26 0
-13 -27 0
-13 -28 0
-13 -29 0
-13 -30 0
-13 -31 0
-13 -32 0
-13 -33 0
-13 -34 0
-13 -35 0
-13 -36 0
-13 -37 0
-13 -38 0
-13 -39 0
-13 -40 0
-13 -41 0
-13 -42 0
-13 -43 0
-13 -44 0
-13 -45 0
-13 -46 0
-13 -47 0
-13 -48 0
-13 -49 0
-13 -50 0
-13 -51 0
-13 -52 0
-13 -53 0
-13 -54 0
-13 -55 0
-13 -56 0
-13 -57 0
-13 -58 0
-13 -59 0
-13 -60 0
-13 -61 0
-13 -62 0
-13 -63 0
-13 -64 0
-13 -65 0
-13 -66 0
-13 -67 0
-13 -68 0
-13 -69 0
-13 -70 0
-13 -71 0
-13 -72 0
-13 -73 0
-13 -74 0
-13 -75 0
-13 -76 0
-13 -77 0
-13 -78 0
-13 -79 0
-13 -80 0
-13 -81 0
-13 -82 0
-13 -83 0
-13 -84 0
-13 -85 0
-13 -86 0
-13 -87 0
-13 -88 0
-13 -89 0
-13 -90 0
-13 -91 0
-13 -92 0
-13 -93 0
-13 -94 0
-13 -95 0
-13 -96 0
-13 -97 0
-13 -98 0
-13 -99 0
-13 -100 0
-13 -101 0
-13 -102 0
-13 -103 0
-13 -104 0
-13 -105 0
-13 -106 0
-13 -107 0
-13 -108 0
-13 -109 0
-13 -110 0
-13 -111 0
-13 -112 0
-13 -113 0
-13 -114 0
-13 -115 0
-13 -116 0
-13 -117 0
-13 -118 0
-13 -119 0
-13 -120 0
-13 -121 0
-13 -122 0
-13 -123 0
-13 -124 0
-13 -125 0
-13 -126 0
-13 -127 0
-13 -128 0
-14 -15 0
-14 -16 0
-14 -17 0
-14 -18 0
-14 -19 0
-14 -20 0
-14 -21 0
-14 -22 0
-14 -23 0
-14 -24 0
-14 -25 0
-14 -26 0
-14 -27 0
-14 -28 0
-14 -29 0
-14 -30 0
-14 -31 0
-14 -32 0
-14 -33 0
-14 -34 0
-14 -35 0
-14 -36 0
-14 -37 0
-14 -38 0
-14 -39 0
-14 -40 0
-14 -41 0
-14 -42 0
-14 -43 0
-14 -44 0
-14 -45 0
-14 -46 0
-14 -47 0
-14 -48 0
-14 -49 0
-14 -50 0
-14 -51 0
-14 -52 0
-14 -53 0
-14 -54 0
-14 -55 0
-14 -56 0
-14 -57 0
-14 -58 0
-14 -59 0
-14 -60 0
-14 -61 0
-14 -62 0
-14 -63 0
-14 -64 0
-14 -65 0
-14 -66 0
-14 -67 0
-14 -68 0
-14 -69 0
-14 -70 0
-14 -71 0
-14 -72 0
-14 -73 0
-14 -74 0
-14 -75 0
-14 -76 0
-14 -77 0
-14 -78 0
-14 -79 0
-14 -80 0
-14 -81 0
-14 -82 0
-14 -83 0
-14 -84 0
-14 -85 0
-14 -86 0
-14 -87 0
-14 -88 0
-14 -89 0
-14 -90 0
-14 -91 0
-14 -92 0
-14 -93 0
-14 -94 0
-14 -95 0
-14 -96 0
-14 -97 0
-14 -98 0
-14 -99 0
-14 -100 0
-14 -101 0
-14 -102 0
-14 -103 0
-14 -104 0
-14 -105 0
-14 -106 0
-14 -107 0
-14 -108 0
-14 -109 0
-14 -110 0
-14 -111 0
-14 -112 0
-14 -113 0
-14 -114 0
-14 -115 0
-14 -116 0
-14 -117 0
-14 -118 0
-14 -119 0
-14 -120 0
-14 -121 0
-14 -122 0
-14 -123 0
-14 -124 0
-14 -125 0
-14 -126 0
-14 -127 0
-14 -128 0
-15 -16 0
-15 -17 0
-15 -18 0
-15 -19 0
-15 -20 0
-15 -21 0
-15 -22 0
-15 -23 0
-15 -24 0
-15 -25 0
-15 -26 0
-15 -27 0
-15 -28 0
-15 -29 0
-15 -30 0
-15 -31 0
-15 -32 0
-15 -33 0
-15 -34 0
-15 -35 0
-15 -36 0
-15 -37 0
-15 -38 0
-15 -39 0
-15 -40 0
-15 -41 0
-15 -42 0
-15 -43 0
-15 -44 0
-15 -45 0
-15 -46 0
-15 -47 0
-15 -48 0
-15 -49 0
-15 -50 0
-15 -51 0
-15 -52 0
-15 -53 0
-15 -54 0
-15 -55 0
-15 -56 0
-15 -57 0
-15 -58 0
-15 -59 0
-15 -60 0
-15 -61 0
-15 -62 0
-15 -63 0
-15 -64 0
-15 -65 0
-15 -66 0
-15 -67 0
-15 -68 0
-15 -69 0
-15 -70 0
-15 -71 0
-15 -72 0
-15 -73 0
-15 -74 0
-15 -75 0
-15 -76 0
-15 -77 0
-15 -78 0
-15 -79 0
-15 -80 0
-15 -81 0
-15 -82 0
-15 -83 0
-15 -84 0
-15 -85 0
-15 -86 0
-15 -87 0
-15 -88 0
-15 -89 0
-15 -90 0
-15 -91 0
-15 -92 0
-15 -93 0
-15 -94 0
-15 -95 0
-15 -96 0
-15 -97 0
-15 -98 0
-15 -99 0
-15 -100 0
-15 -101 0
-15 -102 0
-15 -103 0
-15 -104 0
-15 -105 0
-15 -106 0
-15 -107 0
-15 -108 0
-15 -109 0
-15 -110 0
-15 -111 0
-15 -112 0
-15 -113 0
-15 -114 0
-15 -115 0
-15 -116 0
-15 -117 0
-15 -118 0
-15 -119 0
-15 -120 0
-15 -121 0
-15 -122 0
-15 -123 0
-15 -124 0
-15 -125 0
-15 -126 0
-15 -127 0
-15 -128 0
-16 -17 0
-16 -18 0
-16 -19 0
-16 -20 0
-16 -21 0
-16 -22 0
-16 -23 0
-16 -24 0
-16 -25 0
-16 -26 0
-16 -27 0
-16 -28 0
-16 -29 0
-16 -30 0
-16 -31 0
-16 -32 0
-16 -33 0
-16 -34 0
-16 -35 0
-16 -36 0
-16 -37 0
-16 -38 0
-16 -39 0
-16 -40 0
-16 -41 0
-16 -42 0
-16 -43 0
-16 -44 0
-16 -45 0
-16 -46 0
-16 -47 0
-16 -48 0
-16 -49 0
-16 -50 0
-16 -51 0
-16 -52 0
-16 -53 0
-16 -54 0
-16 -55 0
-16 -56 0
-16 -57 0
-16 -58 0
-16 -59 0
-16 -60 0
-16 -61 0
-16 -62 0
-16 -63 0
-16 -64 0
-16 -65 0
-16 -66 0
-16 -67 0
-16 -68 0
-16 -69 0
-16 -70 0
-16 -71 0
-16 -72 0
-16 -73 0
-16 -74 0
-16 -75 0
-16 -76 0
-16 -77 0
-16 -78 0
-16 -79 0
-16 -80 0
-16 -81 0
-16 -82 0
-16 -83 0
-16 -84 0
-16 -85 0
-16 -86 0
-16 -87 0
-16 -88 0
-16 -89 0
-16 -90 0
-16 -91 0
-16 -92 0
-16 -93 0
-16 -94 0
-16 -95 0
-16 -96 0
-16 -97 0
-16 -98 0
-16 -99 0
-16 -100 0
-16 -101 0
-16 -102 0
-16 -103 0
-16 -104 0
-16 -105 0
-16 -106 0
-16 -107 0
-16 -108 0
-16 -109 0
-16 -110 0
-16 -111 0
-16 -112 0
-16 -113 0
-16 -114 0
-16 -115 0
-16 -116 0
-16 -117 0
-16 -118 0
-16 -119 0
-16 -120 0
-16 -121 0
-16 -122 0
-16 -123 0
-16 -124 0
-16 -125 0
-16 -126 0
-16 -127 0
-16 -128 0
-17 -18 0
-17 -19 0
-17 -20 0
-17 -21 0
-17 -22 0
-17 -23 0
-17 -24 0
-17 -25 0
-17 -26 0
-17 -27 0
-17 -28 0
-17 -29 0
-17 -30 0
-17 -31 0
-17 -32 0
-17 -33 0
-17 -34 0
-17 -35 0
-17 -36 0
-17 -37 0
-17 -38 0
-17 -39 0
-17 -40 0
-17 -41 0
-17 -42 0
-17 -43 0
-17 -44 0
-17 -45 0
-17 -46 0
-17 -47 0
-17 -48 0
-17 -49 0
-17 -50 0
-17 -51 0
-17 -52 0
-17 -53 0
-17 -54 0
-17 -55 0
-17 -56 0
-17 -57 0
-17 -58 0
-17 -59 0
-17 -60 0
-17 -61 0
-17 -62 0
-17 -63 0
-17 -64 0
-17 -65 0
-17 -66 0
-17 -67 0
-17 -68 0
-17 -69 0
-17 -70 0
-17 -71 0
-17 -72 0
-17 -73 0
-17 -74 0
-17 -75 0
-17 -76 0
-17 -77 0
-17 -78 0
-17 -79 0
-17 -80 0
-17 -81 0
-17 -82 0
-17 -83 0
-17 -84 0
-17 -85 0
-17 -86 0
-17 -87 0
-17 -88 0
-17 -89 0
-17 -90 0
-17 -91 0
-17 -92 0
-17 -93 0
-17 -94 0
-17 -95 0
-17 -96 0
-17 -97 0
-17 -98 0
-17 -99 0
-17 -100 0
-17 -101 0
-17 -102 0
-17 -103 0
-17 -104 0
-17 -105 0
-17 -106 0
-17 -107 0
-17 -108 0
-17 -109 0
-17 -110 0
-17 -111 0
-17 -112 0
-17 -113 0
-17 -114 0
-17 -115 0
-17 -116 0
-17 -117 0
-17 -118 0
-17 -119 0
-17 -120 0
-17 -121 0
-17 -122 0
-17 -123 0
-17 -124 0
-17 -125 0
-17 -126 0
-17 -127 0
-17 -128 0
-18 -19 0
-18 -20 0
-18 -21 0
-18 -22 0
-18 -23 0
-18 -24 0
-18 -25 0
-18 -26 0
-18 -27 0
-18 -28 0
-18 -29 0
-18 -30 0
-18 -31 0
-18 -32 0
-18 -33 0
-18 -34 0
-18 -35 0
-18 -36 0
-18 -37 0
-18 -38 0
-18 -39 0
-18 -40 0
-18 -41 0
-18 -42 0
-18 -43 0
-18 -44 0
-18 -45 0
-18 -46 0
-18 -47 0
-18 -48 0
-18 -49 0
-18 -50 0
-18 -51 0
-18 -52 0
-18 -53 0
-18 -54 0
-18 -55 0
-18 -56 0
-18 -57 0
-18 -58 0
-18 -59 0
-18 -60 0
-18 -61 0
-18 -62 0
-18 -63 0
-18 -64 0
-18 -65 0
-18 -66 0
-18 -67 0
-18 -68 0
-18 -69 0
-18 -70 0
-18 -71 0
-18 -72 0
-18 -73 0
-18 -74 0
-18 -75 0
-18 -76 0
-18 -77 0
-18 -78 0
-18 -79 0
-18 -80 0
-18 -81 0
-18 -82 0
-18 -83 0
-18 -84 0
-18 -85 0
-18 -86 0
-18 -87 0
-18 -88 0
-18 -89 0
-18 -90 0
-18 -91 0
-18 -92 0
-18 -93 0
-18 -94 0
-18 -95 0
-18 -96 0
-18 -97 0
-18 -98 0
-18 -99 0
-18 -100 0
-18 -101 0
-18 -102 0
-18 -103 0
-18 -104 0
-18 -105 0
-18 -106 0
-18 -107 0
-18 -108 0
-18 -109 0
-18 -110 0
-18 -111 0
-18 -112 0
-18 -113 0
-18 -114 0
-18 -115 0
-18 -116 0
-18 -117 0
-18 -118 0
-18 -119 0
-18 -120 0
-18 -121 0
-18 -122 0
-18 -123 0
-18 -124 0
-18 -125 0
-18 -126 0
-18 -127 0
-18 -128 0
-19 -20 0
-19 -21 0
-19 -22 0
-19 -23 0
-19 -24 0
-19 -25 0
-19 -26 0
-19 -27 0
-19 -28 0
-19 -29 0
-19 -30 0
-19 -31 0
-19 -32 0
-19 -33 0
-19 -34 0
-19 -35 0
-19 -36 0
-19 -37 0
-19 -38 0
-19 -39 0
-19 -40 0
-19 -41 0
-19 -42 0
-19 -43 0
-19 -44 0
-19 -45 0
-19 -46 0
-19 -47 0
-19 -48 0
-19 -49 0
-19 -50 0
-19 -51 0
-19 -52 0
-19 -53 0
-19 -54 0
-19 -55 0
-19 -56 0
-19 -57 0
-19 -58 0
-19 -59 0
-19 -60 0
-19 -61 0
-19 -62 0
-19 -63 0
-19 -64 0
-19 -65 0
-19 -66 0
-19 -67 0
-19 -68 0
-19 -69 0
-19 -70 0
-19 -71 0
-19 -72 0
-19 -73 0
-19 -74 0
-19 -75 0
-19 -76 0
-19 -77 0
-19 -78 0
-19 -79 0
-19 -80 0
-19 -81 0
-19 -82 0
-19 -83 0
-19 -84 0
-19 -85 0
-19 -86 0
-19 -87 0
-19 -88 0
-19 -89 0
-19 -90 0
-19 -91 0
-19 -92 0
-19 -93 0
-19 -94 0
-19 -95 0
-19 -96 0
-19 -97 0
-19 -98 0
-19 -99 0
-19 -100 0
-19 -101 0
-19 -102 0
-19 -103 0
-19 -104 0
-19 -105 0
-19 -106 0
-19 -107 0
-19 -108 0
-19 -109 0
-19 -110 0
-19 -111 0
-19 -112 0
-19 -113 0
-19 -114 0
-19 -115 0
-19 -116 0
-19 -117 0
-19 -118 0
-19 -119 0
-19 -120 0
-19 -121 0
-19 -122 0
-19 -123 0
-19 -124 0
-19 -125 0
-19 -126 0
-19 -127 0
-19 -128 0
-20 -21 0
-20 -22 0
-20 -23 0
-20 -24 0
-20 -25 0
-20 -26 0
-20 -27 0
-20 -28 0
-20 -29 0
-20 -30 0
-20 -31 0
-20 -32 0
-20 -33 0
-20 -34 0
-20 -35 0
-20 -36 0
-20 -37 0
-20 -38 0
-20 -39 0
-20 -40 0
-20 -41 0
-20 -42 0
-20 -43 0
-20 -44 0
-20 -45 0
-20 -46 0
-20 -47 0
-20 -48 0
-20 -49 0
-20 -50 0
-20 -51 0
-20 -52 0
-20 -53 0
-20 -54 0
-20 -55 0
-20 -56 0
-20 -57 0
-20 -58 0
-20 -59 0
-20 -60 0
-20 -61 0
-20 -62 0
-20 -63 0
-20 -64 0
-20 -65 0
-20 -66 0
-20 -67 0
-20 -68 0
-20 -69 0
-20 -70 0
-20 -71 0
-20 -72 0
-20 -73 0
-20 -74 0
-20 -75 0
-20 -76 0
-20 -77 0
-20 -78 0
-20 -79 0
-20 -80 0
-20 -81 0
-20 -82 0
-20 -83 0
-20 -84 0
-20 -85 0
-20 -86 0
-20 -87 0
-20 -88 0
-20 -89 0
-20 -90 0
-20 -91 0
-20 -92 0
-20 -93 0
-20 -94 0
-20 -95 0
-20 -96 0
-20 -97 0
-20 -98 0
-20 -99 0
-20 -100 0
-20 -101 0
-20 -102 0
-20 -103 0
-20 -104 0
-20 -105 0
-20 -106 0
-20 -107 0
-20 -108 0
-20 -109 0
-20 -110 0
-20 -111 0
-20 -112 0
-20 -113 0
-20 -114 0
-20 -115 0
-20 -116 0
-20 -117 0
-20 -118 0
-20 -119 0
-20 -120 0
-20 -121 0
-20 -122 0
-20 -123 0
-20 -124 0
-20 -125 0
-20 -126 0
-20 -127 0
-20 -128 0
-21 -22 0
-21 -23 0
-21 -24 0
-21 -25 0
-21 -26 0
-21 -27 0
-21 -28 0
-21 -29 0
-21 -30 0
-21 -31 0
-21 -32 0
-21 -33 0
-21 -34 0
-21 -35 0
-21 -36 0
-21 -37 0
-21 -38 0
-21 -39 0
-21 -40 0
-21 -41 0
-21 -42 0
-21 -43 0
-21 -44 0
-21 -45 0
-21 -46 0
-21 -47 0
-21 -48 0
-21 -49 0
-21 -50 0
-21 -51 0
-21 -52 0
-21 -53 0
-21 -54 0
-21 -55 0
-21 -56 0
-21 -57 0
-21 -58 0
-21 -59 0
-21 -60 0
-21 -61 0
-21 -62 0
-21 -63 0
-21 -64 0
-21 -65 0
-21 -66 0
-21 -67 0
-21 -68 0
-21 -69 0
-21 -70 0
-21 -71 0
-21 -72 0
-21 -73 0
-21 -74 0
-21 -75 0
-21 -76 0
-21 -77 0
-21 -78 0
-21 -79 0
-21 -80 0
-21 -81 0
-21 -82 0
-21 -83 0
-21 -84 0
-21 -85 0
-21 -86 0
-21 -87 0
-21 -88 0
-21 -89 0
-21 -90 0
-21 -91 0
-21 -92 0
-21 -93 0
-21 -94 0
-21 -95 0
-21 -96 0
-21 -97 0
-21 -98 0
-21 -99 0
-21 -100 0
-21 -101 0
-21 -102 0
-21 -103 0
-21 -104 0
-21 -105 0
-21 -106 0
-21 -107 0
-21 -108 0
-21 -109 0
-21 -110 0
-21 -111 0
-21 -112 0
-21 -113 0
-21 -114 0
-21 -115 0
-21 -116 0
-21 -117 0
-21 -118 0
-21 -119 0
-21 -120 0
-21 -121 0
-21 -122 0
-21 -123 0
-21 -124 0
-21 -125 0
-21 -126 0
-21 -127 0
-21 -128 0
-22 -23 0
-22 -24 0
-22 -25 0
-22 -26 0
-22 -27 0
-22 -28 0
-22 -29 0
-22 -30 0
-22 -31 0
-22 -32 0
-22 -33 0
-22 -34 0
-22 -35 0
-22 -36 0
-22 -37 0
-22 -38 0
-22 -39 0
-22 -40 0
-22 -41 0
-22 -42 0
-22 -43 0
-22 -44 0
-22 -45 0
-22 -46 0
-22 -47 0
-22 -48 0
-22 -49 0
-22 -50 0
-22 -51 0
-22 -52 0
-22 -53 0
-22 -54 0
-22 -55 0
-22 -56 0
-22 -57 0
-22 -58 0
-22 -59 0
-22 -60 0
-22 -61 0
-22 -62 0
-22 -63 0
-22 -64 0
-22 -65 0
-22 -66 0
-22 -67 0
-22 -68 0
-22 -69 0
-22 -70 0
-22 -71 0
-22 -72 0
-22 -73 0
-22 -74 0
-22 -75 0
-22 -76 0
-22 -77 0
-22 -78 0
-22 -79 0
-22 -80 0
-22 -81 0
-22 -82 0
-22 -83 0
-22 -84 0
-22 -85 0
-22 -86 0
-22 -87 0
-22 -88 0
-22 -89 0
-22 -90 0
-22 -91 0
-22 -92 0
-22 -93 0
-22 -94 0
-22 -95 0
-22 -96 0
-22 -97 0
-22 -98 0
-22 -99 0
-22 -100 0
-22 -101 0
-22 -102 0
-22 -103 0
-22 -104 0
-22 -105 0
-22 -106 0
-22 -107 0
-22 -108 0
-22 -109 0
-22 -110 0
-22 -111 0
-22 -112 0
-22 -113 0
-22 -114 0
-22 -115 0
-22 -116 0
-22 -117 0
-22 -118 0
-22 -119 0
-22 -120 0
-22 -121 0
-22 -122 0
-22 -123 0
-22 -124 0
-22 -125 0
-22 -126 0
-22 -127 0
-22 -128 0
-23 -24 0
-23 -25 0
-23 -26 0
-23 -27 0
-23 -28 0
-23 -29 0
-23 -30 0
-23 -31 0
-23 -32 0
-23 -33 0
-23 -34 0
-23 -35 0
-23 -36 0
-23 -37 0
-23 -38 0
-23 -39 0
-23 -40 0
-23 -41 0
-23 -42 0
-23 -43 0
-23 -44 0
-23 -45 0
-23 -46 0
-23 -47 0
-23 -48 0
-23 -49 0
-23 -50 0
-23 -51 0
-23 -52 0
-23 -53 0
-23 -54 0
-23 -55 0
-23 -56 0
-23 -57 0
-23 -58 0
-23 -59 0
-23 -60 0
-23 -61 0
-23 -62 0
-23 -63 0
-23 -64 0
-23 -65 0
-23 -66 0
-23 -67 0
-23 -68 0
-23 -69 0
-23 -70 0
-23 -71 0
-23 -72 0
-23 -73 0
-23 -74 0
-23 -75 0
-23 -76 0
-23 -77 0
-23 -78 0
-23 -79 0
-23 -80 0
-23 -81 0
-23 -82 0
-23 -83 0
-23 -84 0
-23 -85 0
-23 -86 0
-23 -87 0
-23 -88 0
-23 -89 0
-23 -90 0
-23 -91 0
-23 -92 0
-23 -93 0
-23 -94 0
-23 -95 0
-23 -96 0
-23 -97 0
-23 -98 0
-23 -99 0
-23 -100 0
-23 -101 0
-23 -102 0
-23 -103 0
-23 -104 0
-23 -105 0
-23 -106 0
-23 -107 0
-23 -108 0
-23 -109 0
-23 -110 0
-23 -111 0
-23 -112 0
-23 -113 0
-23 -114 0
-23 -115 0
-23 -116 0
-23 -117 0
-23 -118 0
-23 -119 0
-23 -120 0
-23 -121 0
-23 -122 0
-23 -123 0
-23 -124 0
-23 -125 0
-23 -126 0
-23 -127 0
-23 -128 0
-24 -25 0
-24 -26 0
-24 -27 0
-24 -28 0
-24 -29 0
-24 -30 0
-24 -31 0
-24 -32 0
-24 -33 0
-24 -34 0
-24 -35 0
-24 -36 0
-24 -37 0
-24 -38 0
-24 -39 0
-24 -40 0
-24 -41 0
-24 -42 0
-24 -43 0
-24 -44 0
-24 -45 0
-24 -46 0
-24 -47 0
-24 -48 0
-24 -49 0
-24 -50 0
-24 -51 0
-24 -52 0
-24 -53 0
-24 -54 0
-24 -55 0
-24 -56 0
-24 -57 0
-24 -58 0
-24 -59 0
-24 -60 0
-24 -61 0
-24 -62 0
-24 -63 0
-24 -64 0
-24 -65 0
-24 -66 0
-24 -67 0
-24 -68 0
-24 -69 0
-24 -70 0
-24 -71 0
-24 -72 0
-24 -73 0
-24 -74 0
-24 -75 0
-24 -76 0
-24 -77 0
-24 -78 0
-24 -79 0
-24 -80 0
-24 -81 0
-24 -82 0
-24 -83 0
-24 -84 0
-24 -85 0
-24 -86 0
-24 -87 0
-24 -88 0
-24 -89 0
-24 -90 0
-24 -91 0
-24 -92 0
-24 -93 0
-24 -94 0
-24 -95 0
-24 -96 0
-24 -97 0
-24 -98 0
-24 -99 0
-24 -100 0
-24 -101 0
-24 -102 0
-24 -103 0
-24 -104 0
-24 -105 0
-24 -106 0
-24 -107 0
-24 -108 0
-24 -109 0
-24 -110 0
-24 -111 0
-24 -112 0
-24 -113 0
-24 -114 0
-24 -115 0
-24 -116 0
-24 -117 0
-24 -118 0
-24 -119 0
-24 -120 0
-24 -121 0
-24 -122 0
-24 -123 0
-24 -124 0
-24 -125 0
-24 -126 0
-24 -127 0
-24 -128 0
-25 -26 0
-25 -27 0
-25 -28 0
-25 -29 0
-25 -30 0
-25 -31 0
-25 -32 0
-25 -33 0
-25 -34 0
-25 -35 0
-25 -36 0
-25 -37 0
-25 -38 0
-25 -39 0
-25 -40 0
-25 -41 0
-25 -42 0
-25 -43 0
-25 -44 0
-25 -45 0
-25 -46 0
-25 -47 0
-25 -48 0
-25 -49 0
-25 -50 0
-25 -51 0
-25 -52 0
-25 -53 0
-25 -54 0
-25 -55 0
-25 -56 0
-25 -57 0
-25 -58 0
-25 -59 0
-25 -60 0
-25 -61 0
-25 -62 0
-25 -63 0
-25 -64 0
-25 -65 0
-25 -66 0
-25 -67 0
-25 -68 0
-25 -69 0
-25 -70 0
-25 -71 0
-25 -72 0
-25 -73 0
-25 -74 0
-25 -75 0
-25 -76 0
-25 -77 0
-25 -78 0
-25 -79 0
-25 -80 0
-25 -81 0
-25 -82 0
-25 -83 0
-25 -84 0
-25 -85 0
-25 -86 0
-25 -87 0
-25 -88 0
-25 -89 0
-25 -90 0
-25 -91 0
-25 -92 0
-25 -93 0
-25 -94 0
-25 -95 0
-25 -96 0
-25 -97 0
-25 -98 0
-25 -99 0
-25 -100 0
-25 -101 0
-25 -102 0
-25 -103 0
-25 -104 0
-25 -105 0
-25 -106 0
-25 -107 0
-25 -108 0
-25 -109 0
-25 -110 0
-25 -111 0
-25 -112 0
-25 -113 0
-25 -114 0
-25 -115 0
-25 -116 0
-25 -117 0
-25 -118 0
-25 -119 0
-25 -120 0
-25 -121 0
-25 -122 0
-25 -123 0
-25 -124 0
-25 -125 0
-25 -126 0
-25 -127 0
-25 -128 0
-26 -27 0
-26 -28 0
-26 -29 0
-26 -30 0
-26 -31 0
-26 -32 0
-26 -33 0
-26 -34 0
-26 -35 0
-26 -36 0
-26 -37 0
-26 -38 0
-26 -39 0
-26 -40 0
-26 -41 0
-26 -42 0
-26 -43 0
-26 -44 0
-26 -45 0
-26 -46 0
-26 -47 0
-26 -48 0
-26 -49 0
-26 -50 0
-26 -51 0
-26 -52 0
-26 -53 0
-26 -54 0
-26 -55 0
-26 -56 0
-26 -57 0
-26 -58 0
-26 -59 0
-26 -60 0
-26 -61 0
-26 -62 0
-26 -63 0
-26 -64 0
-26 -65 0
-26 -66 0
-26 -67 0
-26 -68 0
-26 -69 0
-26 -70 0
-26 -71 0
-26 -72 0
-26 -73 0
-26 -74 0
-26 -75 0
-26 -76 0
-26 -77 0
-26 -78 0
-26 -79 0
-26 -80 0
-26 -81 0
-26 -82 0
-26 -83 0
-26 -84 0
-26 -85 0
-26 -86 0
-26 -87 0
-26 -88 0
-26 -89 0
-26 -90 0
-26 -91 0
-26 -92 0
-26 -93 0
-26 -94 0
-26 -95 0
-26 -96 0
-26 -97 0
-26 -98 0
-26 -99 0
-26 -100 0
-26 -101 0
-26 -102 0
-26 -103 0
-26 -104 0
-26 -105 0
-26 -106 0
-26 -107 0
-26 -108 0
-26 -109 0
-26 -110 0
-26 -111 0
-26 -112 0
-26 -113 0
-26 -114 0
-26 -115 0
-26 -116 0
-26 -117 0
-26 -118 0
-26 -119 0
-26 -120 0
-26 -121 0
-26 -122 0
-26 -123 0
-26 -124 0
-26 -125 0
-26 -126 0
-26 -127 0
-26 -128 0
-27 -28 0
-27 -29 0
-27 -30 0
-27 -31 0
-27 -32 0
-27 -33 0
-27 -34 0
-27 -35 0
-27 -36 0
-27 -37 0
-27 -38 0
-27 -39 0
-27 -40 0
-27 -41 0
-27 -42 0
-27 -43 0
-27 -44 0
-27 -45 0
-27 -46 0
-27 -47 0
-27 -48 0
-27 -49 0
-27 -50 0
-27 -51 0
-27 -52 0
-27 -53 0
-27 -54 0
-27 -55 0
-27 -56 0
-27 -57 0
-27 -58 0
-27 -59 0
-27 -60 0
-27 -61 0
-27 -62 0
-27 -63 0
-27 -64 0
-27 -65 0
-27 -66 0
-27 -67 0
-27 -68 0
-27 -69 0
-27 -70 0
-27 -71 0
-27 -72 0
-27 -73 0
-27 -74 0
-27 -75 0
-27 -76 0
-27 -77 0
-27 -78 0
-27 -79 0
-27 -80 0
-27 -81 0
-27 -82 0
-27 -83 0
-27 -84 0
-27 -85 0
-27 -86 0
-27 -87 0
-27 -88 0
-27 -89 0
-27 -90 0
-27 -91 0
-27 -92 0
-27 -93 0
-27 -94 0
-27 -95 0
-27 -96 0
-27 -97 0
-27 -98 0
-27 -99 0
-27 -100 0
-27 -101 0
-27 -102 0
-27 -103 0
-27 -104 0
-27 -105 0
-27 -106 0
-27 -107 0
-27 -108 0
-27 -109 0
-27 -110 0
-27 -111 0
-27 -112 0
-27 -113 0
-27 -114 0
-27 -115 0
-27 -116 0
-27 -117 0
-27 -118 0
-27 -119 0
-27 -120 0
-27 -121 0
-27 -122 0
-27 -123 0
-27 -124 0
-27 -125 0
-27 -126 0
-27 -127 0
-27 -128 0
-28 -29 0
-28 -30 0
-28 -31 0
-28 -32 0
-28 -33 0
-28 -34 0
-28 -35 0
-28 -36 0
-28 -37 0
-28 -38 0
-28 -39 0
-28 -40 0
-28 -41 0
-28 -42 0
-28 -43 0
-28 -44 0
-28 -45 0
-28 -46 0
-28 -47 0
-28 -48 0
-28 -49 0
-28 -50 0
-28 -51 0
-28 -52 0
-28 -53 0
-28 -54 0
-28 -55 0
-28 -56 0
-28 -57 0
-28 -58 0
-28 -59 0
-28 -60 0
-28 -61 0
-28 -62 0
-28 -63 0
-28 -64 0
-28 -65 0
-28 -66 0
-28 -67 0
-28 -68 0
-28 -69 0
-28 -70 0
-28 -71 0
-28 -72 0
-28 -73 0
-28 -74 0
-28 -75 0
-28 -76 0
-28 -77 0
-28 -78 0
-28 -79 0
-28 -80 0
-28 -81 0
-28 -82 0
-28 -83 0
-28 -84 0
-28 -85 0
-28 -86 0
-28 -87 0
-28 -88 0
-28 -89 0
-28 -90 0
-28 -91 0
-28 -92 0
-28 -93 0
-28 -94 0
-28 -95 0
-28 -96 0
-28 -97 0
-28 -98 0
-28 -99 0
-28 -100 0
-28 -101 0
-28 -102 0
-28 -103 0
-28 -104 0
-28 -105 0
-28 -106 0
-28 -107 0
-28 -108 0
-28 -109 0
-28 -110 0
-28 -111 0
-28 -112 0
-28 -113 0
-28 -114 0
-28 -115 0
-28 -116 0
-28 -117 0
-28 -118 0
-28 -119 0
-28 -120 0
-28 -121 0
-28 -122 0
-28 -123 0
-28 -124 0
-28 -125 0
-28 -126 0
-28 -127 0
-28 -128 0
-29 -30 0
-29 -31 0
-29 -32 0
-29 -33 0
-29 -34 0
-29 -35 0
-29 -36 0
-29 -37 0
-29 -38 0
-29 -39 0
-29 -40 0
-29 -41 0
-29 -42 0
-29 -43 0
-29 -44 0
-29 -45 0
-29 -46 0
-29 -47 0
-29 -48 0
-29 -49 0
-29 -50 0
-29 -51 0
-29 -52 0
-29 -53 0
-29 -54 0
-29 -55 0
-29 -56 0
-29 -57 0
-29 -58 0
-29 -59 0
-29 -60 0
-29 -61 0
-29 -62 0
-29 -63 0
-29 -64 0
-29 -65 0
-29 -66 0
-29 -67 0
-29 -68 0
-29 -69 0
-29 -70 0
-29 -71 0
-29 -72 0
-29 -73 0
-29 -74 0
-29 -75 0
-29 -76 0
-29 -77 0
-29 -78 0
-29 -79 0
-29 -80 0
-29 -81 0
-29 -82 0
-29 -83 0
-29 -84 0
-29 -85 0
-29 -86 0
-29 -87 0
-29 -88 0
-29 -89 0
-29 -90 0
-29 -91 0
-29 -92 0
-29 -93 0
-29 -94 0
-29 -95 0
-29 -96 0
-29 -97 0
-29 -98 0
-29 -99 0
-29 -100 0
-29 -101 0
-29 -102 0
-29 -103 0
-29 -104 0
-29 -105 0
-29 -106 0
-29 -107 0
-29 -108 0
-29 -109 0
-29 -110 0
-29 -111 0
-29 -112 0
-29 -113 0
-29 -114 0
-29 -115 0
-29 -116 0
-29 -117 0
-29 -118 0
-29 -119 0
-29 -120 0
-29 -121 0
-29 -122 0
-29 -123 0
-29 -124 0
-29 -125 0
-29 -126 0
-29 -127 0
-29 -128 0
-30 -31 0
-30 -32 0
-30 -33 0
-30 -34 0
-30 -35 0
-30 -36 0
-30 -37 0
-30 -38 0
-30 -39 0
-30 -40 0
-30 -41 0
-30 -42 0
-30 -43 0
-30 -44 0
-30 -45 0
-30 -46 0
-30 -47 0
-30 -48 0
-30 -49 0
-30 -50 0
-30 -51 0
-30 -52 0
-30 -53 0
-30 -54 0
-30 -55 0
-30 -56 0
-30 -57 0
-30 -58 0
-30 -59 0
-30 -60 0
-30 -61 0
-30 -62 0
-30 -63 0
-30 -64 0
-30 -65 0
-30 -66 0
-30 -67 0
-30 -68 0
-30 -69 0
-30 -70 0
-30 -71 0
-30 -72 0
-30 -73 0
-30 -74 0
-30 -75 0
-30 -76 0
-30 -77 0
-30 -78 0
-30 -79 0
-30 -80 0
-30 -81 0
-30 -82 0
-30 -83 0
-30 -84 0
-30 -85 0
-30 -86 0
-30 -87 0
-30 -88 0
-30 -89 0
-30 -90 0
-30 -91 0
-30 -92 0
-30 -93 0
-30 -94 0
-30 -95 0
-30 -96 0
-30 -97 0
-30 -98 0
-30 -99 0
-30 -100 0
-30 -101 0
-30 -102 0
-30 -103 0
-30 -104 0
-30 -105 0
-30 -106 0
-30 -107 0
-30 -108 0
-30 -109 0
-30 -110 0
-30 -111 0
-30 -112 0
-30 -113 0
-30 -114 0
-30 -115 0
-30 -116 0
-30 -117 0
-30 -118 0
-30 -119 0
-30 -120 0
-30 -121 0
-30 -122 0
-30 -123 0
-30 -124 0
-30 -125 0
-30 -126 0
-30 -127 0
-30 -128 0
-31 -32 0
-31 -33 0
-31 -34 0
-31 -35 0
-31 -36 0
-31 -37 0
-31 -38 0
-31 -39 0
-31 -40 0
-31 -41 0
-31 -42 0
-31 -43 0
-31 -44 0
-31 -45 0
-31 -46 0
-31 -47 0
-31 -48 0
-31 -49 0
-31 -50 0
-31 -51 0
-31 -52 0
-31 -53 0
-31 -54 0
-31 -55 0
-31 -56 0
-31 -57 0
-31 -58 0
-31 -59 0
-31 -60 0
-31 -61 0
-31 -62 0
-31 -63 0
-31 -64 0
-31 -65 0
-31 -66 0
-31 -67 0
-31 -68 0
-31 -69 0
-31 -70 0
-31 -71 0
-31 -72 0
-31 -73 0
-31 -74 0
-31 -75 0
-31 -76 0
-31 -77 0
-31 -78 0
-31 -79 0
-31 -80 0
-31 -81 0
-31 -82 0
-31 -83 0
-31 -84 0
-31 -85 0
-31 -86 0
-31 -87 0
-31 -88 0
-31 -89 0
-31 -90 0
-31 -91 0
-31 -92 0
-31 -93 0
-31 -94 0
-31 -95 0
-31 -96 0
-31 -97 0
-31 -98 0
-31 -99 0
-31 -100 0
-31 -101 0
-31 -102 0
-31 -103 0
-31 -104 0
-31 -105 0
-31 -106 0
-31 -107 0
-31 -108 0
-31 -109 0
-31 -110 0
-31 -111 0
-31 -112 0
-31 -113 0
-31 -114 0
-31 -115 0
-31 -116 0
-31 -117 0
-31 -118 0
-31 -119 0
-31 -120 0
-31 -121 0
-31 -122 0
-31 -123 0
-31 -124 0
-31 -125 0
-31 -126 0
-31 -127 0
-31 -128 0
-32 -33 0
-32 -34 0
-32 -35 0
-32 -36 0
-32 -37 0
-32 -38 0
-32 -39 0
-32 -40 0
-32 -41 0
-32 -42 0
-32 -43 0
-32 -44 0
-32 -45 0
-32 -46 0
-32 -47 0
-32 -48 0
-32 -49 0
-32 -50 0
-32 -51 0
-32 -52 0
-32 -53 0
-32 -54 0
-32 -55 0
-32 -56 0
-32 -57 0
-32 -58 0
-32 -59 0
-32 -60 0
-32 -61 0
-32 -62 0
-32 -63 0
-32 -64 0
-32 -65 0
-32 -66 0
-32 -67 0
-32 -68 0
-32 -69 0
-32 -70 0
-32 -71 0
-32 -72 0
-32 -73 0
-32 -74 0
-32 -75 0
-32 -76 0
-32 -77 0
-32 -78 0
-32 -79 0
-32 -80 0
-32 -81 0
-32 -82 0
-32 -83 0
-32 -84 0
-32 -85 0
-32 -86 0
-32 -87 0
-32 -88 0
-32 -89 0
-32 -90 0
-32 -91 0
-32 -92 0
-32 -93 0
-32 -94 0
-32 -95 0
-32 -96 0
-32 -97 0
-32 -98 0
-32 -99 0
-32 -100 0
-32 -101 0
-32 -102 0
-32 -103 0
-32 -104 0
-32 -105 0
-32 -106 0
-32 -107 0
-32 -108 0
-32 -109 0
-32 -110 0
-32 -111 0
-32 -112 0
-32 -113 0
-32 -114 0
-32 -115 0
-32 -116 0
-32 -117 0
-32 -118 0
-32 -119 0
-32 -120 0
-32 -121 0
-32 -122 0
-32 -123 0
-32 -124 0
-32 -125 0
-32 -126 0
-32 -127 0
-32 -128 0
-33 -34 0
-33 -35 0
-33 -36 0
-33 -37 0
-33 -38 0
-33 -39 0
-33 -40 0
-33 -41 0
-33 -42 0
-33 -43 0
-33 -44 0
-33 -45 0
-33 -46 0
-33 -47 0
-33 -48 0
-33 -49 0
-33 -50 0
-33 -51 0
-33 -52 0
-33 -53 0
-33 -54 0
-33 -55 0
-33 -56 0
-33 -57 0
-33 -58 0
-33 -59 0
-33 -60 0
-33 -61 0
-33 -62 0
-33 -63 0
-33 -64 0
-33 -65 0
-33 -66 0
-33 -67 0
-33 -68 0
-33 -69 0
-33 -70 0
-33 -71 0
-33 -72 0
-33 -73 0
-33 -74 0
-33 -75 0
-33 -76 0
-33 -77 0
-33 -78 0
-33 -79 0
-33 -80 0
-33 -81 0
-33 -82 0
-33 -83 0
-33 -84 0
-33 -85 0
-33 -86 0
-33 -87 0
-33 -88 0
-33 -89 0
-33 -90 0
-33 -91 0
-33 -92 0
-33 -93 0
-33 -94 0
-33 -95 0
-33 -96 0
-33 -97 0
-33 -98 0
-33 -99 0
-33 -100 0
-33 -101 0
-33 -102 0
-33 -103 0
-33 -104 0
-33 -105 0
-33 -106 0
-33 -107 0
-33 -108 0
-33 -109 0
-33 -110 0
-33 -111 0
-33 -112 0
-33 -113 0
-33 -114 0
-33 -115 0
-33 -116 0
-33 -117 0
-33 -118 0
-33 -119 0
-33 -120 0
-33 -121 0
-33 -122 0
-33 -123 0
-33 -124 0
-33 -125 0
-33 -126 0
-33 -127 0
-33 -128 0
-34 -35 0
-34 -36 0
-34 -37 0
-34 -38 0
-34 -39 0
-34 -40 0
-34 -41 0
-34 -42 0
-34 -43 0
-34 -44 0
-34 -45 0
-34 -46 0
-34 -47 0
-34 -48 0
-34 -49 0
-34 -50 0
-34 -51 0
-34 -52 0
-34 -53 0
-34 -54 0
-34 -55 0
-34 -56 0
-34 -57 0
-34 -58 0
-34 -59 0
-34 -60 0
-34 -61 0
-34 -62 0
-34 -63 0
-34 -64 0
-34 -65 0
-34 -66 0
-34 -67 0
-34 -68 0
-34 -69 0
-34 -70 0
-34 -71 0
-34 -72 0
-34 -73 0
-34 -74 0
-34 -75 0
-34 -76 0
-34 -77 0
-34 -78 0
-34 -79 0
-34 -80 0
-34 -81 0
-34 -82 0
-34 -83 0
-34 -84 0
-34 -85 0
-34 -86 0
-34 -87 0
-34 -88 0
-34 -89 0
-34 -90 0
-34 -91 0
-34 -92 0
-34 -93 0
-34 -94 0
-34 -95 0
-34 -96 0
-34 -97 0
-34 -98 0
-34 -99 0
-34 -100 0
-34 -101 0
-34 -102 0
-34 -103 0
-34 -104 0
-34 -105 0
-34 -106 0
-34 -107 0
-34 -108 0
-34 -109 0
-34 -110 0
-34 -111 0
-34 -112 0
-34 -113 0
-34 -114 0
-34 -115 0
-34 -116 0
-34 -117 0
-34 -118 0
-34 -119 0
-34 -120 0
-34 -121 0
-34 -122 0
-34 -123 0
-34 -124 0
-34 -125 0
-34 -126 0
-34 -127 0
-34 -128 0
-35 -36 0
-35 -37 0
-35 -38 0
-35 -39 0
-35 -40 0
-35 -41 0
-35 -42 0
-35 -43 0
-35 -44 0
-35 -45 0
-35 -46 0
-35 -47 0
-35 -48 0
-35 -49 0
-35 -50 0
-35 -51 0
-35 -52 0
-35 -53 0
-35 -54 0
-35 -55 0
-35 -56 0
-35 -57 0
-35 -58 0
-35 -59 0
-35 -60 0
-35 -61 0
-35 -62 0
-35 -63 0
-35 -64 0
-35 -65 0
-35 -66 0
-35 -67 0
-35 -68 0
-35 -69 0
-35 -70 0
-35 -71 0
-35 -72 0
-35 -73 0
-35 -74 0
-35 -75 0
-35 -76 0
-35 -77 0
-35 -78 0
-35 -79 0
-35 -80 0
-35 -81 0
-35 -82 0
-35 -83 0
-35 -84 0
-35 -85 0
-35 -86 0
-35 -87 0
-35 -88 0
-35 -89 0
-35 -90 0
-35 -91 0
-35 -92 0
-35 -93 0
-35 -94 0
-35 -95 0
-35 -96 0
-35 -97 0
-35 -98 0
-35 -99 0
-35 -100 0
-35 -101 0
-35 -102 0
-35 -103 0
-35 -104 0
-35 -105 0
-35 -106 0
-35 -107 0
-35 -108 0
-35 -109 0
-35 -110 0
-35 -111 0
-35 -112 0
-35 -113 0
-35 -114 0
-35 -115 0
-35 -116 0
-35 -117 0
-35 -118 0
-35 -119 0
-35 -120 0
-35 -121 0
-35 -122 0
-35 -123 0
-35 -124 0
-35 -125 0
-35 -126 0
-35 -127 0
-35 -128 0
-36 -37 0
-36 -38 0
-36 -39 0
-36 -40 0
-36 -41 0
-36 -42 0
-36 -43 0
-36 -44 0
-36 -45 0
-36 -46 0
-36 -47 0
-36 -48 0
-36 -49 0
-36 -50 0
-36 -51 0
-36 -52 0
-36 -53 0
-36 -54 0
-36 -55 0
-36 -56 0
-36 -57 0
-36 -58 0
-36 -59 0
-36 -60 0
-36 -61 0
-36 -62 0
-36 -63 0
-36 -64 0
-36 -65 0
-36 -66 0
-36 -67 0
-36 -68 0
-36 -69 0
-36 -70 0
-36 -71 0
-36 -72 0
-36 -73 0
-36 -74 0
-36 -75 0
-36 -76 0
-36 -77 0
-36 -78 0
-36 -79 0
-36 -80 0
-36 -81 0
-36 -82 0
-36 -83 0
-36 -84 0
-36 -85 0
-36 -86 0
-36 -87 0
-36 -88 0
-36 -89 0
-36 -90 0
-36 -91 0
-36 -92 0
-36 -93 0
-36 -94 0
-36 -95 0
-36 -96 0
-36 -97 0
-36 -98 0
-36 -99 0
-36 -100 0
-36 -101 0
-36 -102 0
-36 -103 0
-36 -104 0
-36 -105 0
-36 -106 0
-36 -107 0
-36 -108 0
-36 -109 0
-36 -110 0
-36 -111 0
-36 -112 0
-36 -113 0
-36 -114 0
-36 -115 0
-36 -116 0
-36 -117 0
-36 -118 0
-36 -119 0
-36 -120 0
-36 -121 0
-36 -122 0
-36 -123 0
-36 -124 0
-36 -125 0
-36 -126 0
-36 -127 0
-36 -128 0
-37 -38 0
-37 -39 0
-37 -40 0
-37 -41 0
-37 -42 0
-37 -43 0
-37 -44 0
-37 -45 0
-37 -46 0
-37 -47 0
-37 -48 0
-37 -49 0
-37 -50 0
-37 -51 0
-37 -52 0
-37 -53 0
-37 -54 0
-37 -55 0
-37 -56 0
-37 -57 0
-37 -58 0
-37 -59 0
-37 -60 0
-37 -61 0
-37 -62 0
-37 -63 0
-37 -64 0
-37 -65 0
-37 -66 0
-37 -67 0
-37 -68 0
-37 -69 0
-37 -70 0
-37 -71 0
-37 -72 0
-37 -73 0
-37 -74 0
-37 -75 0
-37 -76 0
-37 -77 0
-37 -78 0
-37 -79 0
-37 -80 0
-37 -81 0
-37 -82 0
-37 -83 0
-37 -84 0
-37 -85 0
-37 -86 0
-37 -87 0
-37 -88 0
-37 -89 0
-37 -90 0
-37 -91 0
-37 -92 0
-37 -93 0
-37 -94 0
-37 -95 0
-37 -96 0
-37 -97 0
-37 -98 0
-37 -99 0
-37 -100 0
-37 -101 0
-37 -102 0
-37 -103 0
-37 -104 0
-37 -105 0
-37 -106 0
-37 -107 0
-37 -108 0
-37 -109 0
-37 -110 0
-37 -111 0
-37 -112 0
-37 -113 0
-37 -114 0
-37 -115 0
-37 -116 0
-37 -117 0
-37 -118 0
-37 -119 0
-37 -120 0
-37 -121 0
-37 -122 0
-37 -123 0
-37 -124 0
-37 -125 0
-37 -126 0
-37 -127 0
-37 -128 0
-38 -39 0
-38 -40 0
-38 -41 0
-38 -42 0
-38 -43 0
-38 -44 0
-38 -45 0
-38 -46 0
-38 -47 0
-38 -48 0
-38 -49 0
-38 -50 0
-38 -51 0
-38 -52 0
-38 -53 0
-38 -54 0
-38 -55 0
-38 -56 0
-38 -57 0
-38 -58 0
-38 -59 0
-38 -60 0
-38 -61 0
-38 -62 0
-38 -63 0
-38 -64 0
-38 -65 0
-38 -66 0
-38 -67 0
-38 -68 0
-38 -69 0
-38 -70 0
-38 -71 0
-38 -72 0
-38 -73 0
-38 -74 0
-38 -75 0
-38 -76 0
-38 -77 0
-38 -78 0
-38 -79 0
-38 -80 0
-38 -81 0
-38 -82 0
-38 -83 0
-38 -84 0
-38 -85 0
-38 -86 0
-38 -87 0
-38 -88 0
-38 -89 0
-38 -90 0
-38 -91 0
-38 -92 0
-38 -93 0
-38 -94 0
-38 -95 0
-38 -96 0
-38 -97 0
-38 -98 0
-38 -99 0
-38 -100 0
-38 -101 0
-38 -102 0
-38 -103 0
-38 -104 0
-38 -105 0
-38 -106 0
-38 -107 0
-38 -108 0
-38 -109 0
-38 -110 0
-38 -111 0
-38 -112 0
-38 -113 0
-38 -114 0
-38 -115 0
-38 -116 0
-38 -117 0
-38 -118 0
-38 -119 0
-38 -120 0
-38 -121 0
-38 -122 0
-38 -123 0
-38 -124 0
-38 -125 0
-38 -126 0
-38 -127 0
-38 -128 0
-39 -40 0
-39 -41 0
-39 -42 0
-39 -43 0
-39 -44 0
-39 -45 0
-39 -46 0
-39 -47 0
-39 -48 0
-39 -49 0
-39 -50 0
-39 -51 0
-39 -52 0
-39 -53 0
-39 -54 0
-39 -55 0
-39 -56 0
-39 -57 0
-39 -58 0
-39 -59 0
-39 -60 0
-39 -61 0
-39 -62 0
-39 -63 0
-39 -64 0
-39 -65 0
-39 -66 0
-39 -67 0
-39 -68 0
-39 -69 0
-39 -70 0
-39 -71 0
-39 -72 0
-39 -73 0
-39 -74 0
-39 -75 0
-39 -76 0
-39 -77 0
-39 -78 0
-39 -79 0
-39 -80 0
-39 -81 0
-39 -82 0
-39 -83 0
-39 -84 0
-39 -85 0
-39 -86 0
-39 -87 0
-39 -88 0
-39 -89 0
-39 -90 0
-39 -91 0
-39 -92 0
-39 -93 0
-39 -94 0
-39 -95 0
-39 -96 0
-39 -97 0
-39 -98 0
-39 -99 0
-39 -100 0
-39 -101 0
-39 -102 0
-39 -103 0
-39 -104 0
-39 -105 0
-39 -106 0
-39 -107 0
-39 -108 0
-39 -109 0
-39 -110 0
-39 -111 0
-39 -112 0
-39 -113 0
-39 -114 0
-39 -115 0
-39 -116 0
-39 -117 0
-39 -118 0
-39 -119 0
-39 -120 0
-39 -121 0
-39 -122 0
-39 -123 0
-39 -124 0
-39 -125 0
-39 -126 0
-39 -127 0
-39 -128 0
-40 -41 0
-40 -42 0
-40 -43 0
-40 -44 0
-40 -45 0
-40 -46 0
-40 -47 0
-40 -48 0
-40 -49 0
-40 -50 0
-40 -51 0
-40 -52 0
-40 -53 0
-40 -54 0
-40 -55 0
-40 -56 0
-40 -57 0
-40 -58 0
-40 -59 0
-40 -60 0
-40 -61 0
-40 -62 0
-40 -63 0
-40 -64 0
-40 -65 0
-40 -66 0
-40 -67 0
-40 -68 0
-40 -69 0
-40 -70 0
-40 -71 0
-40 -72 0
-40 -73 0
-40 -74 0
-40 -75 0
-40 -76 0
-40 -77 0
-40 -78 0
-40 -79 0
-40 -80 0
-40 -81 0
-40 -82 0
-40 -83 0
-40 -84 0
-40 -85 0
-40 -86 0
-40 -87 0
-40 -88 0
-40 -89 0
-40 -90 0
-40 -91 0
-40 -92 0
-40 -93 0
-40 -94 0
-40 -95 0
-40 -96 0
-40 -97 0
-40 -98 0
-40 -99 0
-40 -100 0
-40 -101 0
-40 -102 0
-40 -103 0
-40 -104 0
-40 -105 0
-40 -106 0
-40 -107 0
-40 -108 0
-40 -109 0
-40 -110 0
-40 -111 0
-40 -112 0
-40 -113 0
-40 -114 0
-40 -115 0
-40 -116 0
-40 -117 0
-40 -118 0
-40 -119 0
-40 -120 0
-40 -121 0
-40 -122 0
-40 -123 0
-40 -124 0
-40 -125 0
-40 -126 0
-40 -127 0
-40 -128 0
-41 -42 0
-41 -43 0
-41 -44 0
-41 -45 0
-41 -46 0
-41 -47 0
-41 -48 0
-41 -49 0
-41 -50 0
-41 -51 0
-41 -52 0
-41 -53 0
-41 -54 0
-41 -55 0
-41 -56 0
-41 -57 0
-41 -58 0
-41 -59 0
-41 -60 0
-41 -61 0
-41 -62 0
-41 -63 0
-41 -64 0
-41 -65 0
-41 -66 0
-41 -67 0
-41 -68 0
-41 -69 0
-41 -70 0
-41 -71 0
-41 -72 0
-41 -73 0
-41 -74 0
-41 -75 0
-41 -76 0
-41 -77 0
-41 -78 0
-41 -79 0
-41 -80 0
-41 -81 0
-41 -82 0
-41 -83 0
-41 -84 0
-41 -85 0
-41 -86 0
-41 -87 0
-41 -88 0
-41 -89 0
-41 -90 0
-41 -91 0
-41 -92 0
-41 -93 0
-41 -94 0
-41 -95 0
-41 -96 0
-41 -97 0
-41 -98 0
-41 -99 0
-41 -100 0
-41 -101 0
-41 -102 0
-41 -103 0
-41 -104 0
-41 -105 0
-41 -106 0
-41 -107 0
-41 -108 0
-41 -109 0
-41 -110 0
-41 -111 0
-41 -112 0
-41 -113 0
-41 -114 0
-41 -115 0
-41 -116 0
-41 -117 0
-41 -118 0
-41 -119 0
-41 -120 0
-41 -121 0
-41 -122 0
-41 -123 0
-41 -124 0
-41 -125 0
-41 -126 0
-41 -127 0
-41 -128 0
-42 -43 0
-42 -44 0
-42 -45 0
-42 -46 0
-42 -47 0
-42 -48 0
-42 -49 0
-42 -50 0
-42 -51 0
-42 -52 0
-42 -53 0
-42 -54 0
-42 -55 0
-42 -56 0
-42 -57 0
-42 -58 0
-42 -59 0
-42 -60 0
-42 -61 0
-42 -62 0
-42 -63 0
-42 -64 0
-42 -65 0
-42 -66 0
-42 -67 0
-42 -68 0
-42 -69 0
-42 -70 0
-42 -71 0
-42 -72 0
-42 -73 0
-42 -74 0
-42 -75 0
-42 -76 0
-42 -77 0
-42 -78 0
-42 -79 0
-42 -80 0
-42 -81 0
-42 -82 0
-42 -83 0
-42 -84 0
-42 -85 0
-42 -86 0
-42 -87 0
-42 -88 0
-42 -89 0
-42 -90 0
-42 -91 0
-42 -92 0
-42 -93 0
-42 -94 0
-42 -95 0
-42 -96 0
-42 -97 0
-42 -98 0
-42 -99 0
-42 -100 0
-42 -101 0
-42 -102 0
-42 -103 0
-42 -104 0
-42 -105 0
-42 -106 0
-42 -107 0
-42 -108 0
-42 -109 0
-42 -110 0
-42 -111 0
-42 -112 0
-42 -113 0
-42 -114 0
-42 -115 0
-42 -116 0
-42 -117 0
-42 -118 0
-42 -119 0
-42 -120 0
-42 -121 0
-42 -122 0
-42 -123 0
-42 -124 0
-42 -125 0
-42 -126 0
-42 -127 0
-42 -128 0
-43 -44 0
-43 -45 0
-43 -46 0
-43 -47 0
-43 -48 0
-43 -49 0
-43 -50 0
-43 -51 0
-43 -52 0
-43 -53 0
-43 -54 0
-43 -55 0
-43 -56 0
-43 -57 0
-43 -58 0
-43 -59 0
-43 -60 0
-43 -61 0
-43 -62 0
-43 -63 0
-43 -64 0
-43 -65 0
-43 -66 0
-43 -67 0
-43 -68 0
-43 -69 0
-43 -70 0
-43 -71 0
-43 -72 0
-43 -73 0
-43 -74 0
-43 -75 0
-43 -76 0
-43 -77 0
-43 -78 0
-43 -79 0
-43 -80 0
-43 -81 0
-43 -82 0
-43 -83 0
-43 -84 0
-43 -85 0
-43 -86 0
-43 -87 0
-43 -88 0
-43 -89 0
-43 -90 0
-43 -91 0
-43 -92 0
-43 -93 0
-43 -94 0
-43 -95 0
-43 -96 0
-43 -97 0
-43 -98 0
-43 -99 0
-43 -100 0
-43 -101 0
-43 -102 0
-43 -103 0
-43 -104 0
-43 -105 0
-43 -106 0
-43 -107 0
-43 -108 0
-43 -109 0
-43 -110 0
-43 -111 0
-43 -112 0
-43 -113 0
-43 -114 0
-43 -115 0
-43 -116 0
-43 -117 0
-43 -118 0
-43 -119 0
-43 -120 0
-43 -121 0
-43 -122 0
-43 -123 0
-43 -124 0
-43 -125 0
-43 -126 0
-43 -127 0
-43 -128 0
-44 -45 0
-44 -46 0
-44 -47 0
-44 -48 0
-44 -49 0
-44 -50 0
-44 -51 0
-44 -52 0
-44 -53 0
-44 -54 0
-44 -55 0
-44 -56 0
-44 -57 0
-44 -58 0
-44 -59 0
-44 -60 0
-44 -61 0
-44 -62 0
-44 -63 0
-44 -64 0
-44 -65 0
-44 -66 0
-44 -67 0
-44 -68 0
-44 -69 0
-44 -70 0
-44 -71 0
-44 -72 0
-44 -73 0
-44 -74 0
-44 -75 0
-44 -76 0
-44 -77 0
-44 -78 0
-44 -79 0
-44 -80 0
-44 -81 0
-44 -82 0
-44 -83 0
-44 -84 0
-44 -85 0
-44 -86 0
-44 -87 0
-44 -88 0
-44 -89 0
-44 -90 0
-44 -91 0
-44 -92 0
-44 -93 0
-44 -94 0
-44 -95 0
-44 -96 0
-44 -97 0
-44 -98 0
-44 -99 0
-44 -100 0
-44 -101 0
-44 -102 0
-44 -103 0
-44 -104 0
-44 -105 0
-44 -106 0
-44 -107 0
-44 -108 0
-44 -109 0
-44 -110 0
-44 -111 0
-44 -112 0
-44 -113 0
-44 -114 0
-44 -115 0
-44 -116 0
-44 -117 0
-44 -118 0
-44 -119 0
-44 -120 0
-44 -121 0
-44 -122 0
-44 -123 0
-44 -124 0
-44 -125 0
-44 -126 0
-44 -127 0
-44 -128 0
-45 -46 0
-45 -47 0
-45 -48 0
-45 -49 0
-45 -50 0
-45 -51 0
-45 -52 0
-45 -53 0
-45 -54 0
-45 -55 0
-45 -56 0
-45 -57 0
-45 -58 0
-45 -59 0
-45 -60 0
-45 -61 0
-45 -62 0
-45 -63 0
-45 -64 0
-45 -65 0
-45 -66 0
-45 -67 0
-45 -68 0
-45 -69 0
-45 -70 0
-45 -71 0
-45 -72 0
-45 -73 0
-45 -74 0
-45 -75 0
-45 -76 0
-45 -77 0
-45 -78 0
-45 -79 0
-45 -80 0
-45 -81 0
-45 -82 0
-45 -83 0
-45 -84 0
-45 -85 0
-45 -86 0
-45 -87 0
-45 -88 0
-45 -89 0
-45 -90 0
-45 -91 0
-45 -92 0
-45 -93 0
-45 -94 0
-45 -95 0
-45 -96 0
-45 -97 0
-45 -98 0
-45 -99 0
-45 -100 0
-45 -101 0
-45 -102 0
-45 -103 0
-45 -104 0
-45 -105 0
-45 -106 0
-45 -107 0
-45 -108 0
-45 -109 0
-45 -110 0
-45 -111 0
-45 -112 0
-45 -113 0
-45 -114 0
-45 -115 0
-45 -116 0
-45 -117 0
-45 -118 0
-45 -119 0
-45 -120 0
-45 -121 0
-45 -122 0
-45 -123 0
-45 -124 0
-45 -125 0
-45 -126 0
-45 -127 0
-45 -128 0
-46 -47 0
-46 -48 0
-46 -49 0
-46 -50 0
-46 -51 0
-46 -52 0
-46 -53 0
-46 -54 0
-46 -55 0
-46 -56 0
-46 -57 0
-46 -58 0
-46 -59 0
-46 -60 0
-46 -61 0
-46 -62 0
-46 -63 0
-46 -64 0
-46 -65 0
-46 -66 0
-46 -67 0
-46 -68 0
-46 -69 0
-46 -70 0
-46 -71 0
-46 -72 0
-46 -73 0
-46 -74 0
-46 -75 0
-46 -76 0
-46 -77 0
-46 -78 0
-46 -79 0
-46 -80 0
-46 -81 0
-46 -82 0
-46 -83 0
-46 -84 0
-46 -85 0
-46 -86 0
-46 -87 0
-46 -88 0
-46 -89 0
-46 -90 0
-46 -91 0
-46 -92 0
-46 -93 0
-46 -94 0
-46 -95 0
-46 -96 0
-46 -97 0
-46 -98 0
-46 -99 0
-46 -100 0
-46 -101 0
-46 -102 0
-46 -103 0
-46 -104 0
-46 -105 0
-46 -106 0
-46 -107 0
-46 -108 0
-46 -109 0
-46 -110 0
-46 -111 0
-46 -112 0
-46 -113 0
-46 -114 0
-46 -115 0
-46 -116 0
-46 -117 0
-46 -118 0
-46 -119 0
-46 -120 0
-46 -121 0
-46 -122 0
-46 -123 0
-46 -124 0
-46 -125 0
-46 -126 0
-46 -127 0
-46 -128 0
-47 -48 0
-47 -49 0
-47 -50 0
-47 -51 0
-47 -52 0
-47 -53 0
-47 -54 0
-47 -55 0
-47 -56 0
-47 -57 0
-47 -58 0
-47 -59 0
-47 -60 0
-47 -61 0
-47 -62 0
-47 -63 0
-47 -64 0
-47 -65 0
-47 -66 0
-47 -67 0
-47 -68 0
-47 -69 0
-47 -70 0
-47 -71 0
-47 -72 0
-47 -73 0
-47 -74 0
-47 -75 0
-47 -76 0
-47 -77 0
-47 -78 0
-47 -79 0
-47 -80 0
-47 -81 0
-47 -82 0
-47 -83 0
-47 -84 0
-47 -85 0
-47 -86 0
-47 -87 0
-47 -88 0
-47 -89 0
-47 -90 0
-47 -91 0
-47 -92 0
-47 -93 0
-47 -94 0
-47 -95 0
-47 -96 0
-47 -97 0
-47 -98 0
-47 -99 0
-47 -100 0
-47 -101 0
-47 -102 0
-47 -103 0
-47 -104 0
-47 -105 0
-47 -106 0
-47 -107 0
-47 -108 0
-47 -109 0
-47 -110 0
-47 -111 0
-47 -112 0
-47 -113 0
-47 -114 0
-47 -115 0
-47 -116 0
-47 -117 0
-47 -118 0
-47 -119 0
-47 -120 0
-47 -121 0
-47 -122 0
-47 -123 0
-47 -124 0
-47 -125 0
-47 -126 0
-47 -127 0
-47 -128 0
-48 -49 0
-48 -50 0
-48 -51 0
-48 -52 0
-48 -53 0
-48 -54 0
-48 -55 0
-48 -56 0
-48 -57 0
-48 -58 0
-48 -59 0
-48 -60 0
-48 -61 0
-48 -62 0
-48 -63 0
-48 -64 0
-48 -65 0
-48 -66 0
-48 -67 0
-48 -68 0
-48 -69 0
-48 -70 0
-48 -71 0
-48 -72 0
-48 -73 0
-48 -74 0
-48 -75 0
-48 -76 0
-48 -77 0
-48 -78 0
-48 -79 0
-48 -80 0
-48 -81 0
-48 -82 0
-48 -83 0
-48 -84 0
-48 -85 0
-48 -86 0
-48 -87 0
-48 -88 0
-48 -89 0
-48 -90 0
-48 -91 0
-48 -92 0
-48 -93 0
-48 -94 0
-48 -95 0
-48 -96 0
-48 -97 0
-48 -98 0
-48 -99 0
-48 -100 0
-48 -101 0
-48 -102 0
-48 -103 0
-48 -104 0
-48 -105 0
-48 -106 0
-48 -107 0
-48 -108 0
-48 -109 0
-48 -110 0
-48 -111 0
-48 -112 0
-48 -113 0
-48 -114 0
-48 -115 0
-48 -116 0
-48 -117 0
-48 -118 0
-48 -119 0
-48 -120 0
-48 -121 0
-48 -122 0
-48 -123 0
-48 -124 0
-48 -125 0
-48 -126 0
-48 -127 0
-48 -128 0
-49 -50 0
-49 -51 0
-49 -52 0
-49 -53 0
-49 -54 0
-49 -55 0
-49 -56 0
-49 -57 0
-49 -58 0
-49 -59 0
-49 -60 0
-49 -61 0
-49 -62 0
-49 -63 0
-49 -64 0
-49 -65 0
-49 -66 0
-49 -67 0
-49 -68 0
-49 -69 0
-49 -70 0
-49 -71 0
-49 -72 0
-49 -73 0
-49 -74 0
-49 -75 0
-49 -76 0
-49 -77 0
-49 -78 0
-49 -79 0
-49 -80 0
-49 -81 0
-49 -82 0
-49 -83 0
-49 -84 0
-49 -85 0
-49 -86 0
-49 -87 0
-49 -88 0
-49 -89 0
-49 -90 0
-49 -91 0
-49 -92 0
-49 -93 0
-49 -94 0
-49 -95 0
-49 -96 0
-49 -97 0
-49 -98 0
-49 -99 0
-49 -100 0
-49 -101 0
-49 -102 0
-49 -103 0
-49 -104 0
-49 -105 0
-49 -106 0
-49 -107 0
-49 -108 0
-49 -109 0
-49 -110 0
-49 -111 0
-49 -112 0
-49 -113 0
-49 -114 0
-49 -115 0
-49 -116 0
-49 -117 0
-49 -118 0
-49 -119 0
-49 -120 0
-49 -121 0
-49 -122 0
-49 -123 0
-49 -124 0
-49 -125 0
-49 -126 0
-49 -127 0
-49 -128 0
-50 -51 0
-50 -52 0
-50 -53 0
-50 -54 0
-50 -55 0
-50 -56 0
-50 -57 0
-50 -58 0
-50 -59 0
-50 -60 0
-50 -61 0
-50 -62 0
-50 -63 0
-50 -64 0
-50 -65 0
-50 -66 0
-50 -67 0
-50 -68 0
-50 -69 0
-50 -70 0
-50 -71 0
-50 -72 0
-50 -73 0
-50 -74 0
-50 -75 0
-50 -76 0
-50 -77 0
-50 -78 0
-50 -79 0
-50 -80 0
-50 -81 0
-50 -82 0
-50 -83 0
-50 -84 0
-50 -85 0
-50 -86 0
-50 -87 0
-50 -88 0
-50 -89 0
-50 -90 0
-50 -91 0
-50 -92 0
-50 -93 0
-50 -94 0
-50 -95 0
-50 -96 0
-50 -97 0
-50 -98 0
-50 -99 0
-50 -100 0
-50 -101 0
-50 -102 0
-50 -103 0
-50 -104 0
-50 -105 0
-50 -106 0
-50 -107 0
-50 -108 0
-50 -109 0
-50 -110 0
-50 -111 0
-50 -112 0
-50 -113 0
-50 -114 0
-50 -115 0
-50 -116 0
-50 -117 0
-50 -118 0
-50 -119 0
-50 -120 0
-50 -121 0
-50 -122 0
-50 -123 0
-50 -124 0
-50 -125 0
-50 -126 0
-50 -127 0
-50 -128 0
-51 -52 0
-51 -53 0
-51 -54 0
-51 -55 0
-51 -56 0
-51 -57 0
-51 -58 0
-51 -59 0
-51 -60 0
-51 -61 0
-51 -62 0
-51 -63 0
-51 -64 0
-51 -65 0
-51 -66 0
-51 -67 0
-51 -68 0
-51 -69 0
-51 -70 0
-51 -71 0
-51 -72 0
-51 -73 0
-51 -74 0
-51 -75 0
-51 -76 0
-51 -77 0
-51 -78 0
-51 -79 0
-51 -80 0
-51 -81 0
-51 -82 0
-51 -83 0
-51 -84 0
-51 -85 0
-51 -86 0
-51 -87 0
-51 -88 0
-51 -89 0
-51 -90 0
-51 -91 0
-51 -92 0
-51 -93 0
-51 -94 0
-51 -95 0
-51 -96 0
-51 -97 0
-51 -98 0
-51 -99 0
-51 -100 0
-51 -101 0
-51 -102 0
-51 -103 0
-51 -104 0
-51 -105 0
-51 -106 0
-51 -107 0
-51 -108 0
-51 -109 0
-51 -110 0
-51 -111 0
-51 -112 0
-51 -113 0
-51 -114 0
-51 -115 0
-51 -116 0
-51 -117 0
-51 -118 0
-51 -119 0
-51 -120 0
-51 -121 0
-51 -122 0
-51 -123 0
-51 -124 0
-51 -125 0
-51 -126 0
-51 -127 0
-51 -128 0
-52 -53 0
-52 -54 0
-52 -55 0
-52 -56 0
-52 -57 0
-52 -58 0
-52 -59 0
-52 -60 0
-52 -61 0
-52 -62 0
-52 -63 0
-52 -64 0
-52 -65 0
-52 -66 0
-52 -67 0
-52 -68 0
-52 -69 0
-52 -70 0
-52 -71 0
-52 -72 0
-52 -73 0
-52 -74 0
-52 -75 0
-52 -76 0
-52 -77 0
-52 -78 0
-52 -79 0
-52 -80 0
-52 -81 0
-52 -82 0
-52 -83 0
-52 -84 0
-52 -85 0
-52 -86 0
-52 -87 0
-52 -88 0
-52 -89 0
-52 -90 0
-52 -91 0
-52 -92 0
-52 -93 0
-52 -94 0
-52 -95 0
-52 -96 0
-52 -97 0
-52 -98 0
-52 -99 0
-52 -100 0
-52 -101 0
-52 -102 0
-52 -103 0
-52 -104 0
-52 -105 0
-52 -106 0
-52 -107 0
-52 -108 0
-52 -109 0
-52 -110 0
-52 -111 0
-52 -112 0
-52 -113 0
-52 -114 0
-52 -115 0
-52 -116 0
-52 -117 0
-52 -118 0
-52 -119 0
-52 -120 0
-52 -121 0
-52 -122 0
-52 -123 0
-52 -124 0
-52 -125 0
-52 -126 0
-52 -127 0
-52 -128 0
-53 -54 0
-53 -55 0
-53 -56 0
-53 -57 0
-53 -58 0
-53 -59 0
-53 -60 0
-53 -61 0
-53 -62 0
-53 -63 0
-53 -64 0
-53 -65 0
-53 -66 0
-53 -67 0
-53 -68 0
-53 -69 0
-53 -70 0
-53 -71 0
-53 -72 0
-53 -73 0
-53 -74 0
-53 -75 0
-53 -76 0
-53 -77 0
-53 -78 0
-53 -79 0
-53 -80 0
-53 -81 0
-53 -82 0
-53 -83 0
-53 -84 0
-53 -85 0
-53 -86 0
-53 -87 0
-53 -88 0
-53 -89 0
-53 -90 0
-53 -91 0
-53 -92 0
-53 -93 0
-53 -94 0
-53 -95 0
-53 -96 0
-53 -97 0
-53 -98 0
-53 -99 0
-53 -100 0
-53 -101 0
-53 -102 0
-53 -103 0
-53 -104 0
-53 -105 0
-53 -106 0
-53 -107 0
-53 -108 0
-53 -109 0
-53 -110 0
-53 -111 0
-53 -112 0
-53 -113 0
-53 -114 0
-53 -115 0
-53 -116 0
-53 -117 0
-53 -118 0
-53 -119 0
-53 -120 0
-53 -121 0
-53 -122 0
-53 -123 0
-53 -124 0
-53 -125 0
-53 -126 0
-53 -127 0
-53 -128 0
-54 -55 0
-54 -56 0
-54 -57 0
-54 -58 0
-54 -59 0
-54 -60 0
-54 -61 0
-54 -62 0
-54 -63 0
-54 -64 0
-54 -65 0
-54 -66 0
-54 -67 0
-54 -68 0
-54 -69 0
-54 -70 0
-54 -71 0
-54 -72 0
-54 -73 0
-54 -74 0
-54 -75 0
-54 -76 0
-54 -77 0
-54 -78 0
-54 -79 0
-54 -80 0
-54 -81 0
-54 -82 0
-54 -83 0
-54 -84 0
-54 -85 0
-54 -86 0
-54 -87 0
-54 -88 0
-54 -89 0
-54 -90 0
-54 -91 0
-54 -92 0
-54 -93 0
-54 -94 0
-54 -95 0
-54 -96 0
-54 -97 0
-54 -98 0
-54 -99 0
-54 -100 0
-54 -101 0
-54 -102 0
-54 -103 0
-54 -104 0
-54 -105 0
-54 -106 0
-54 -107 0
-54 -108 0
-54 -109 0
-54 -110 0
-54 -111 0
-54 -112 0
-54 -113 0
-54 -114 0
-54 -115 0
-54 -116 0
-54 -117 0
-54 -118 0
-54 -119 0
-54 -120 0
-54 -121 0
-54 -122 0
-54 -123 0
-54 -124 0
-54 -125 0
-54 -126 0
-54 -127 0
-54 -128 0
-55 -56 0
-55 -57 0
-55 -58 0
-55 -59 0
-55 -60 0
-55 -61 0
-55 -62 0
-55 -63 0
-55 -64 0
-55 -65 0
-55 -66 0
-55 -67 0
-55 -68 0
-55 -69 0
-55 -70 0
-55 -71 0
-55 -72 0
-55 -73 0
-55 -74 0
-55 -75 0
-55 -76 0
-55 -77 0
-55 -78 0
-55 -79 0
-55 -80 0
-55 -81 0
-55 -82 0
-55 -83 0
-55 -84 0
-55 -85 0
-55 -86 0
-55 -87 0
-55 -88 0
-55 -89 0
-55 -90 0
-55 -91 0
-55 -92 0
-55 -93 0
-55 -94 0
-55 -95 0
-55 -96 0
-55 -97 0
-55 -98 0
-55 -99 0
-55 -100 0
-55 -101 0
-55 -102 0
-55 -103 0
-55 -104 0
-55 -105 0
-55 -106 0
-55 -107 0
-55 -108 0
-55 -109 0
-55 -110 0
-55 -111 0
-55 -112 0
-55 -113 0
-55 -114 0
-55 -115 0
-55 -116 0
-55 -117 0
-55 -118 0
-55 -119 0
-55 -120 0
-55 -121 0
-55 -122 0
-55 -123 0
-55 -124 0
-55 -125 0
-55 -126 0
-55 -127 0
-55 -128 0
-56 -57 0
-56 -58 0
-56 -59 0
-56 -60 0
-56 -61 0
-56 -62 0
-56 -63 0
-56 -64 0
-56 -65 0
-56 -66 0
-56 -67 0
-56 -68 0
-56 -69 0
-56 -70 0
-56 -71 0
-56 -72 0
-56 -73 0
-56 -74 0
-56 -75 0
-56 -76 0
-56 -77 0
-56 -78 0
-56 -79 0
-56 -80 0
-56 -81 0
-56 -82 0
-56 -83 0
-56 -84 0
-56 -85 0
-56 -86 0
-56 -87 0
-56 -88 0
-56 -89 0
-56 -90 0
-56 -91 0
-56 -92 0
-56 -93 0
-56 -94 0
-56 -95 0
-56 -96 0
-56 -97 0
-56 -98 0
-56 -99 0
-56 -100 0
-56 -101 0
-56 -102 0
-56 -103 0
-56 -104 0
-56 -105 0
-56 -106 0
-56 -107 0
-56 -108 0
-56 -109 0
-56 -110 0
-56 -111 0
-56 -112 0
-56 -113 0
-56 -114 0
-56 -115 0
-56 -116 0
-56 -117 0
-56 -118 0
-56 -119 0
-56 -120 0
-56 -121 0
-56 -122 0
-56 -123 0
-56 -124 0
-56 -125 0
-56 -126 0
-56 -127 0
-56 -128 0
-57 -58 0
-57 -59 0
-57 -60 0
-57 -61 0
-57 -62 0
-57 -63 0
-57 -64 0
-57 -65 0
-57 -66 0
-57 -67 0
-57 -68 0
-57 -69 0
-57 -70 0
-57 -71 0
-57 -72 0
-57 -73 0
-57 -74 0
-57 -75 0
-57 -76 0
-57 -77 0
-57 -78 0
-57 -79 0
-57 -80 0
-57 -81 0
-57 -82 0
-57 -83 0
-57 -84 0
-57 -85 0
-57 -86 0
-57 -87 0
-57 -88 0
-57 -89 0
-57 -90 0
-57 -91 0
-57 -92 0
-57 -93 0
-57 -94 0
-57 -95 0
-57 -96 0
-57 -97 0
-57 -98 0
-57 -99 0
-57 -100 0
-57 -101 0
-57 -102 0
-57 -103 0
-57 -104 0
-57 -105 0
-57 -106 0
-57 -107 0
-57 -108 0
-57 -109 0
-57 -110 0
-57 -111 0
-57 -112 0
-57 -113 0
-57 -114 0
-57 -115 0
-57 -116 0
-57 -117 0
-57 -118 0
-57 -119 0
-57 -120 0
-57 -121 0
-57 -122 0
-57 -123 0
-57 -124 0
-57 -125 0
-57 -126 0
-57 -127 0
-57 -128 0
-58 -59 0
-58 -60 0
-58 -61 0
-58 -62 0
-58 -63 0
-58 -64 0
-58 -65 0
-58 -66 0
-58 -67 0
-58 -68 0
-58 -69 0
-58 -70 0
-58 -71 0
-58 -72 0
-58 -73 0
-58 -74 0
-58 -75 0
-58 -76 0
-58 -77 0
-58 -78 0
-58 -79 0
-58 -80 0
-58 -81 0
-58 -82 0
-58 -83 0
-58 -84 0
-58 -85 0
-58 -86 0
-58 -87 0
-58 -88 0
-58 -89 0
-58 -90 0
-58 -91 0
-58 -92 0
-58 -93 0
-58 -94 0
-58 -95 0
-58 -96 0
-58 -97 0
-58 -98 0
-58 -99 0
-58 -100 0
-58 -101 0
-58 -102 0
-58 -103 0
-58 -104 0
-58 -105 0
-58 -106 0
-58 -107 0
-58 -108 0
-58 -109 0
-58 -110 0
-58 -111 0
-58 -112 0
-58 -113 0
-58 -114 0
-58 -115 0
-58 -116 0
-58 -117 0
-58 -118 0
-58 -119 0
-58 -120 0
-58 -121 0
-58 -122 0
-58 -123 0
-58 -124 0
-58 -125 0
-58 -126 0
-58 -127 0
-58 -128 0
-59 -60 0
-59 -61 0
-59 -62 0
-59 -63 0
-59 -64 0
-59 -65 0
-59 -66 0
-59 -67 0
-59 -68 0
-59 -69 0
-59 -70 0
-59 -71 0
-59 -72 0
-59 -73 0
-59 -74 0
-59 -75 0
-59 -76 0
-59 -77 0
-59 -78 0
-59 -79 0
-59 -80 0
-59 -81 0
-59 -82 0
-59 -83 0
-59 -84 0
-59 -85 0
-59 -86 0
-59 -87 0
-59 -88 0
-59 -89 0
-59 -90 0
-59 -91 0
-59 -92 0
-59 -93 0
-59 -94 0
-59 -95 0
-59 -96 0
-59 -97 0
-59 -98 0
-59 -99 0
-59 -100 0
-59 -101 0
-59 -102 0
-59 -103 0
-59 -104 0
-59 -105 0
-59 -106 0
-59 -107 0
-59 -108 0
-59 -109 0
-59 -110 0
-59 -111 0
-59 -112 0
-59 -113 0
-59 -114 0
-59 -115 0
-59 -116 0
-59 -117 0
-59 -118 0
-59 -119 0
-59 -120 0
-59 -121 0
-59 -122 0
-59 -123 0
-59 -124 0
-59 -125 0
-59 -126 0
-59 -127 0
-59 -128 0
-60 -61 0
-60 -62 0
-60 -63 0
-60 -64 0
-60 -65 0
-60 -66 0
-60 -67 0
-60 -68 0
-60 -69 0
-60 -70 0
-60 -71 0
-60 -72 0
-60 -73 0
-60 -74 0
-60 -75 0
-60 -76 0
-60 -77 0
-60 -78 0
-60 -79 0
-60 -80 0
-60 -81 0
-60 -82 0
-60 -83 0
-60 -84 0
-60 -85 0
-60 -86 0
-60 -87 0
-60 -88 0
-60 -89 0
-60 -90 0
-60 -91 0
-60 -92 0
-60 -93 0
-60 -94 0
-60 -95 0
-60 -96 0
-60 -97 0
-60 -98 0
-60 -99 0
-60 -100 0
-60 -101 0
-60 -102 0
-60 -103 0
-60 -104 0
-60 -105 0
-60 -106 0
-60 -107 0
-60 -108 0
-60 -109 0
-60 -110 0
-60 -111 0
-60 -112 0
-60 -113 0
-60 -114 0
-60 -115 0
-60 -116 0
-60 -117 0
-60 -118 0
-60 -119 0
-60 -120 0
-60 -121 0
-60 -122 0
-60 -123 0
-60 -124 0
-60 -125 0
-60 -126 0
-60 -127 0
-60 -128 0
-61 -62 0
-61 -63 0
-61 -64 0
-61 -65 0
-61 -66 0
-61 -67 0
-61 -68 0
-61 -69 0
-61 -70 0
-61 -71 0
-61 -72 0
-61 -73 0
-61 -74 0
-61 -75 0
-61 -76 0
-61 -77 0
-61 -78 0
-61 -79 0
-61 -80 0
-61 -81 0
-61 -82 0
-61 -83 0
-61 -84 0
-61 -85 0
-61 -86 0
-61 -87 0
-61 -88 0
-61 -89 0
-61 -90 0
-61 -91 0
-61 -92 0
-61 -93 0
-61 -94 0
-61 -95 0
-61 -96 0
-61 -97 0
-61 -98 0
-61 -99 0
-61 -100 0
-61 -101 0
-61 -102 0
-61 -103 0
-61 -104 0
-61 -105 0
-61 -106 0
-61 -107 0
-61 -108 0
-61 -109 0
-61 -110 0
-61 -111 0
-61 -112 0
-61 -113 0
-61 -114 0
-61 -115 0
-61 -116 0
-61 -117 0
-61 -118 0
-61 -119 0
-61 -120 0
-61 -121 0
-61 -122 0
-61 -123 0
-61 -124 0
-61 -125 0
-61 -126 0
-61 -127 0
-61 -128 0
-62 -63 0
-62 -64 0
-62 -65 0
-62 -66 0
-62 -67 0
-62 -68 0
-62 -69 0
-62 -70 0
-62 -71 0
-62 -72 0
-62 -73 0
-62 -74 0
-62 -75 0
-62 -76 0
-62 -77 0
-62 -78 0
-62 -79 0
-62 -80 0
-62 -81 0
-62 -82 0
-62 -83 0
-62 -84 0
-62 -85 0
-62 -86 0
-62 -87 0
-62 -88 0
-62 -89 0
-62 -90 0
-62 -91 0
-62 -92 0
-62 -93 0
-62 -94 0
-62 -95 0
-62 -96 0
-62 -97 0
-62 -98 0
-62 -99 0
-62 -100 0
-62 -101 0
-62 -102 0
-62 -103 0
-62 -104 0
-62 -105 0
-62 -106 0
-62 -107 0
-62 -108 0
-62 -109 0
-62 -110 0
-62 -111 0
-62 -112 0
-62 -113 0
-62 -114 0
-62 -115 0
-62 -116 0
-62 -117 0
-62 -118 0
-62 -119 0
-62 -120 0
-62 -121 0
-62 -122 0
-62 -123 0
-62 -124 0
-62 -125 0
-62 -126 0
-62 -127 0
-62 -128 0
-63 -64 0
-63 -65 0
-63 -66 0
-63 -67 0
-63 -68 0
-63 -69 0
-63 -70 0
-63 -71 0
-63 -72 0
-63 -73 0
-63 -74 0
-63 -75 0
-63 -76 0
-63 -77 0
-63 -78 0
-63 -79 0
-63 -80 0
-63 -81 0
-63 -82 0
-63 -83 0
-63 -84 0
-63 -85 0
-63 -86 0
-63 -87 0
-63 -88 0
-63 -89 0
-63 -90 0
-63 -91 0
-63 -92 0
-63 -93 0
-63 -94 0
-63 -95 0
-63 -96 0
-63 -97 0
-63 -98 0
-63 -99 0
-63 -100 0
-63 -101 0
-63 -102 0
-63 -103 0
-63 -104 0
-63 -105 0
-63 -106 0
-63 -107 0
-63 -108 0
-63 -109 0
-63 -110 0
-63 -111 0
-63 -112 0
-63 -113 0
-63 -114 0
-63 -115 0
-63 -116 0
-63 -117 0
-63 -118 0
-63 -119 0
-63 -120 0
-63 -121 0
-63 -122 0
-63 -123 0
-63 -124 0
-63 -125 0
-63 -126 0
-63 -127 0
-63 -128 0
-64 -65 0
-64 -66 0
-64 -67 0
-64 -68 0
-64 -69 0
-64 -70 0
-64 -71 0
-64 -72 0
-64 -73 0
-64 -74 0
-64 -75 0
-64 -76 0
-64 -77 0
-64 -78 0
-64 -79 0
-64 -80 0
-64 -81 0
-64 -82 0
-64 -83 0
-64 -84 0
-64 -85 0
-64 -86 0
-64 -87 0
-64 -88 0
-64 -89 0
-64 -90 0
-64 -91 0
-64 -92 0
-64 -93 0
-64 -94 0
-64 -95 0
-64 -96 0
-64 -97 0
-64 -98 0
-64 -99 0
-64 -100 0
-64 -101 0
-64 -102 0
-64 -103 0
-64 -104 0
-64 -105 0
-64 -106 0
-64 -107 0
-64 -108 0
-64 -109 0
-64 -110 0
-64 -111 0
-64 -112 0
-64 -113 0
-64 -114 0
-64 -115 0
-64 -116 0
-64 -117 0
-64 -118 0
-64 -119 0
-64 -120 0
-64 -121 0
-64 -122 0
-64 -123 0
-64 -124 0
-64 -125 0
-64 -126 0
-64 -127 0
-64 -128 0
-65 -66 0
-65 -67 0
-65 -68 0
-65 -69 0
-65 -70 0
-65 -71 0
-65 -72 0
-65 -73 0
-65 -74 0
-65 -75 0
-65 -76 0
-65 -77 0
-65 -78 0
-65 -79 0
-65 -80 0
-65 -81 0
-65 -82 0
-65 -83 0
-65 -84 0
-65 -85 0
-65 -86 0
-65 -87 0
-65 -88 0
-65 -89 0
-65 -90 0
-65 -91 0
-65 -92 0
-65 -93 0
-65 -94 0
-65 -95 0
-65 -96 0
-65 -97 0
-65 -98 0
-65 -99 0
-65 -100 0
-65 -101 0
-65 -102 0
-65 -103 0
-65 -104 0
-65 -105 0
-65 -106 0
-65 -107 0
-65 -108 0
-65 -109 0
-65 -110 0
-65 -111 0
-65 -112 0
-65 -113 0
-65 -114 0
-65 -115 0
-65 -116 0
-65 -117 0
-65 -118 0
-65 -119 0
-65 -120 0
-65 -121 0
-65 -122 0
-65 -123 0
-65 -124 0
-65 -125 0
-65 -126 0
-65 -127 0
-65 -128 0
-66 -67 0
-66 -68 0
-66 -69 0
-66 -70 0
-66 -71 0
-66 -72 0
-66 -73 0
-66 -74 0
-66 -75 0
-66 -76 0
-66 -77 0
-66 -78 0
-66 -79 0
-66 -80 0
-66 -81 0
-66 -82 0
-66 -83 0
-66 -84 0
-66 -85 0
-66 -86 0
-66 -87 0
-66 -88 0
-66 -89 0
-66 -90 0
-66 -91 0
-66 -92 0
-66 -93 0
-66 -94 0
-66 -95 0
-66 -96 0
-66 -97 0
-66 -98 0
-66 -99 0
-66 -100 0
-66 -101 0
-66 -102 0
-66 -103 0
-66 -104 0
-66 -105 0
-66 -106 0
-66 -107 0
-66 -108 0
-66 -109 0
-66 -110 0
-66 -111 0
-66 -112 0
-66 -113 0
-66 -114 0
-66 -115 0
-66 -116 0
-66 -117 0
-66 -118 0
-66 -119 0
-66 -120 0
-66 -121 0
-66 -122 0
-66 -123 0
-66 -124 0
-66 -125 0
-66 -126 0
-66 -127 0
-66 -128 0
-67 -68 0
-67 -69 0
-67 -70 0
-67 -71 0
-67 -72 0
-67 -73 0
-67 -74 0
-67 -75 0
-67 -76 0
-67 -77 0
-67 -78 0
-67 -79 0
-67 -80 0
-67 -81 0
-67 -82 0
-67 -83 0
-67 -84 0
-67 -85 0
-67 -86 0
-67 -87 0
-67 -88 0
-67 -89 0
-67 -90 0
-67 -91 0
-67 -92 0
-67 -93 0
-67 -94 0
-67 -95 0
-67 -96 0
-67 -97 0
-67 -98 0
-67 -99 0
-67 -100 0
-67 -101 0
-67 -102 0
-67 -103 0
-67 -104 0
-67 -105 0
-67 -106 0
-67 -107 0
-67 -108 0
-67 -109 0
-67 -110 0
-67 -111 0
-67 -112 0
-67 -113 0
-67 -114 0
-67 -115 0
-67 -116 0
-67 -117 0
-67 -118 0
-67 -119 0
-67 -120 0
-67 -121 0
-67 -122 0
-67 -123 0
-67 -124 0
-67 -125 0
-67 -126 0
-67 -127 0
-67 -128 0
-68 -69 0
-68 -70 0
-68 -71 0
-68 -72 0
-68 -73 0
-68 -74 0
-68 -75 0
-68 -76 0
-68 -77 0
-68 -78 0
-68 -79 0
-68 -80 0
-68 -81 0
-68 -82 0
-68 -83 0
-68 -84 0
-68 -85 0
-68 -86 0
-68 -87 0
-68 -88 0
-68 -89 0
-68 -90 0
-68 -91 0
-68 -92 0
-68 -93 0
-68 -94 0
-68 -95 0
-68 -96 0
-68 -97 0
-68 -98 0
-68 -99 0
-68 -100 0
-68 -101 0
-68 -102 0
-68 -103 0
-68 -104 0
-68 -105 0
-68 -106 0
-68 -107 0
-68 -108 0
-68 -109 0
-68 -110 0
-68 -111 0
-68 -112 0
-68 -113 0
-68 -114 0
-68 -115 0
-68 -116 0
-68 -117 0
-68 -118 0
-68 -119 0
-68 -120 0
-68 -121 0
-68 -122 0
-68 -123 0
-68 -124 0
-68 -125 0
-68 -126 0
-68 -127 0
-68 -128 0
-69 -70 0
-69 -71 0
-69 -72 0
-69 -73 0
-69 -74 0
-69 -75 0
-69 -76 0
-69 -77 0
-69 -78 0
-69 -79 0
-69 -80 0
-69 -81 0
-69 -82 0
-69 -83 0
-69 -84 0
-69 -85 0
-69 -86 0
-69 -87 0
-69 -88 0
-69 -89 0
-69 -90 0
-69 -91 0
-69 -92 0
-69 -93 0
-69 -94 0
-69 -95 0
-69 -96 0
-69 -97 0
-69 -98 0
-69 -99 0
-69 -100 0
-69 -101 0
-69 -102 0
-69 -103 0
-69 -104 0
-69 -105 0
-69 -106 0
-69 -107 0
-69 -108 0
-69 -109 0
-69 -110 0
-69 -111 0
-69 -112 0
-69 -113 0
-69 -114 0
-69 -115 0
-69 -116 0
-69 -117 0
-69 -118 0
-69 -119 0
-69 -120 0
-69 -121 0
-69 -122 0
-69 -123 0
-69 -124 0
-69 -125 0
-69 -126 0
-69 -127 0
-69 -128 0
-70 -71 0
-70 -72 0
-70 -73 0
-70 -74 0
-70 -75 0
-70 -76 0
-70 -77 0
-70 -78 0
-70 -79 0
-70 -80 0
-70 -81 0
-70 -82 0
-70 -83 0
-70 -84 0
-70 -85 0
-70 -86 0
-70 -87 0
-70 -88 0
-70 -89 0
-70 -90 0
-70 -91 0
-70 -92 0
-70 -93 0
-70 -94 0
-70 -95 0
-70 -96 0
-70 -97 0
-70 -98 0
-70 -99 0
-70 -100 0
-70 -101 0
-70 -102 0
-70 -103 0
-70 -104 0
-70 -105 0
-70 -106 0
-70 -107 0
-70 -108 0
-70 -109 0
-70 -110 0
-70 -111 0
-70 -112 0
-70 -113 0
-70 -114 0
-70 -115 0
-70 -116 0
-70 -117 0
-70 -118 0
-70 -119 0
-70 -120 0
-70 -121 0
-70 -122 0
-70 -123 0
-70 -124 0
-70 -125 0
-70 -126 0
-70 -127 0
-70 -128 0
-71 -72 0
-71 -73 0
-71 -74 0
-71 -75 0
-71 -76 0
-71 -77 0
-71 -78 0
-71 -79 0
-71 -80 0
-71 -81 0
-71 -82 0
-71 -83 0
-71 -84 0
-71 -85 0
-71 -86 0
-71 -87 0
-71 -88 0
-71 -89 0
-71 -90 0
-71 -91 0
-71 -92 0
-71 -93 0
-71 -94 0
-71 -95 0
-71 -96 0
-71 -97 0
-71 -98 0
-71 -99 0
-71 -100 0
-71 -101 0
-71 -102 0
-71 -103 0
-71 -104 0
-71 -105 0
-71 -106 0
-71 -107 0
-71 -108 0
-71 -109 0
-71 -110 0
-71 -111 0
-71 -112 0
-71 -113 0
-71 -114 0
-71 -115 0
-71 -116 0
-71 -117 0
-71 -118 0
-71 -119 0
-71 -120 0
-71 -121 0
-71 -122 0
-71 -123 0
-71 -124 0
-71 -125 0
-71 -126 0
-71 -127 0
-71 -128 0
-72 -73 0
-72 -74 0
-72 -75 0
-72 -76 0
-72 -77 0
-72 -78 0
-72 -79 0
-72 -80 0
-72 -81 0
-72 -82 0
-72 -83 0
-72 -84 0
-72 -85 0
-72 -86 0
-72 -87 0
-72 -88 0
-72 -89 0
-72 -90 0
-72 -91 0
-72 -92 0
-72 -93 0
-72 -94 0
-72 -95 0
-72 -96 0
-72 -97 0
-72 -98 0
-72 -99 0
-72 -100 0
-72 -101 0
-72 -102 0
-72 -103 0
-72 -104 0
-72 -105 0
-72 -106 0
-72 -107 0
-72 -108 0
-72 -109 0
-72 -110 0
-72 -111 0
-72 -112 0
-72 -113 0
-72 -114 0
-72 -115 0
-72 -116 0
-72 -117 0
-72 -118 0
-72 -119 0
-72 -120 0
-72 -121 0
-72 -122 0
-72 -123 0
-72 -124 0
-72 -125 0
-72 -126 0
-72 -127 0
-72 -128 0
-73 -74 0
-73 -75 0
-73 -76 0
-73 -77 0
-73 -78 0
-73 -79 0
-73 -80 0
-73 -81 0
-73 -82 0
-73 -83 0
-73 -84 0
-73 -85 0
-73 -86 0
-73 -87 0
-73 -88 0
-73 -89 0
-73 -90 0
-73 -91 0
-73 -92 0
-73 -93 0
-73 -94 0
-73 -95 0
-73 -96 0
-73 -97 0
-73 -98 0
-73 -99 0
-73 -100 0
-73 -101 0
-73 -102 0
-73 -103 0
-73 -104 0
-73 -105 0
-73 -106 0
-73 -107 0
-73 -108 0
-73 -109 0
-73 -110 0
-73 -111 0
-73 -112 0
-73 -113 0
-73 -114 0
-73 -115 0
-73 -116 0
-73 -117 0
-73 -118 0
-73 -119 0
-73 -120 0
-73 -121 0
-73 -122 0
-73 -123 0
-73 -124 0
-73 -125 0
-73 -126 0
-73 -127 0
-73 -128 0
-74 -75 0
-74 -76 0
-74 -77 0
-74 -78 0
-74 -79 0
-74 -80 0
-74 -81 0
-74 -82 0
-74 -83 0
-74 -84 0
-74 -85 0
-74 -86 0
-74 -87 0
-74 -88 0
-74 -89 0
-74 -90 0
-74 -91 0
-74 -92 0
-74 -93 0
-74 -94 0
-74 -95 0
-74 -96 0
-74 -97 0
-74 -98 0
-74 -99 0
-74 -100 0
-74 -101 0
-74 -102 0
-74 -103 0
-74 -104 0
-74 -105 0
-74 -106 0
-74 -107 0
-74 -108 0
-74 -109 0
-74 -110 0
-74 -111 0
-74 -112 0
-74 -113 0
-74 -114 0
-74 -115 0
-74 -116 0
-74 -117 0
-74 -118 0
-74 -119 0
-74 -120 0
-74 -121 0
-74 -122 0
-74 -123 0
-74 -124 0
-74 -125 0
-74 -126 0
-74 -127 0
-74 -128 0
-75 -76 0
-75 -77 0
-75 -78 0
-75 -79 0
-75 -80 0
-75 -81 0
-75 -82 0
-75 -83 0
-75 -84 0
-75 -85 0
-75 -86 0
-75 -87 0
-75 -88 0
-75 -89 0
-75 -90 0
-75 -91 0
-75 -92 0
-75 -93 0
-75 -94 0
-75 -95 0
-75 -96 0
-75 -97 0
-75 -98 0
-75 -99 0
-75 -100 0
-75 -101 0
-75 -102 0
-75 -103 0
-75 -104 0
-75 -105 0
-75 -106 0
-75 -107 0
-75 -108 0
-75 -109 0
-75 -110 0
-75 -111 0
-75 -112 0
-75 -113 0
-75 -114 0
-75 -115 0
-75 -116 0
-75 -117 0
-75 -118 0
-75 -119 0
-75 -120 0
-75 -121 0
-75 -122 0
-75 -123 0
-75 -124 0
-75 -125 0
-75 -126 0
-75 -127 0
-75 -128 0
-76 -77 0
-76 -78 0
-76 -79 0
-76 -80 0
-76 -81 0
-76 -82 0
-76 -83 0
-76 -84 0
-76 -85 0
-76 -86 0
-76 -87 0
-76 -88 0
-76 -89 0
-76 -90 0
-76 -91 0
-76 -92 0
-76 -93 0
-76 -94 0
-76 -95 0
-76 -96 0
-76 -97 0
-76 -98 0
-76 -99 0
-76 -100 0
-76 -101 0
-76 -102 0
-76 -103 0
-76 -104 0
-76 -105 0
-76 -106 0
-76 -107 0
-76 -108 0
-76 -109 0
-76 -110 0
-76 -111 0
-76 -112 0
-76 -113 0
-76 -114 0
-76 -115 0
-76 -116 0
-76 -117 0
-76 -118 0
-76 -119 0
-76 -120 0
-76 -121 0
-76 -122 0
-76 -123 0
-76 -124 0
-76 -125 0
-76 -126 0
-76 -127 0
-76 -128 0
-77 -78 0
-77 -79 0
-77 -80 0
-77 -81 0
-77 -82 0
-77 -83 0
-77 -84 0
-77 -85 0
-77 -86 0
-77 -87 0
-77 -88 0
-77 -89 0
-77 -90 0
-77 -91 0
-77 -92 0
-77 -93 0
-77 -94 0
-77 -95 0
-77 -96 0
-77 -97 0
-77 -98 0
-77 -99 0
-77 -100 0
-77 -101 0
-77 -102 0
-77 -103 0
-77 -104 0
-77 -105 0
-77 -106 0
-77 -107 0
-77 -108 0
-77 -109 0
-77 -110 0
-77 -111 0
-77 -112 0
-77 -113 0
-77 -114 0
-77 -115 0
-77 -116 0
-77 -117 0
-77 -118 0
-77 -119 0
-77 -120 0
-77 -121 0
-77 -122 0
-77 -123 0
-77 -124 0
-77 -125 0
-77 -126 0
-77 -127 0
-77 -128 0
-78 -79 0
-78 -80 0
-78 -81 0
-78 -82 0
-78 -83 0
-78 -84 0
-78 -85 0
-78 -86 0
-78 -87 0
-78 -88 0
-78 -89 0
-78 -90 0
-78 -91 0
-78 -92 0
-78 -93 0
-78 -94 0
-78 -95 0
-78 -96 0
-78 -97 0
-78 -98 0
-78 -99 0
-78 -100 0
-78 -101 0
-78 -102 0
-78 -103 0
-78 -104 0
-78 -105 0
-78 -106 0
-78 -107 0
-78 -108 0
-78 -109 0
-78 -110 0
-78 -111 0
-78 -112 0
-78 -113 0
-78 -114 0
-78 -115 0
-78 -116 0
-78 -117 0
-78 -118 0
-78 -119 0
-78 -120 0
-78 -121 0
-78 -122 0
-78 -123 0
-78 -124 0
-78 -125 0
-78 -126 0
-78 -127 0
-78 -128 0
-79 -80 0
-79 -81 0
-79 -82 0
-79 -83 0
-79 -84 0
-79 -85 0
-79 -86 0
-79 -87 0
-79 -88 0
-79 -89 0
-79 -90 0
-79 -91 0
-79 -92 0
-79 -93 0
-79 -94 0
-79 -95 0
-79 -96 0
-79 -97 0
-79 -98 0
-79 -99 0
-79 -100 0
-79 -101 0
-79 -102 0
-79 -103 0
-79 -104 0
-79 -105 0
-79 -106 0
-79 -107 0
-79 -108 0
-79 -109 0
-79 -110 0
-79 -111 0
-79 -112 0
-79 -113 0
-79 -114 0
-79 -115 0
-79 -116 0
-79 -117 0
-79 -118 0
-79 -119 0
-79 -120 0
-79 -121 0
-79 -122 0
-79 -123 0
-79 -124 0
-79 -125 0
-79 -126 0
-79 -127 0
-79 -128 0
-80 -81 0
-80 -82 0
-80 -83 0
-80 -84 0
-80 -85 0
-80 -86 0
-80 -87 0
-80 -88 0
-80 -89 0
-80 -90 0
-80 -91 0
-80 -92 0
-80 -93 0
-80 -94 0
-80 -95 0
-80 -96 0
-80 -97 0
-80 -98 0
-80 -99 0
-80 -100 0
-80 -101 0
-80 -102 0
-80 -103 0
-80 -104 0
-80 -105 0
-80 -106 0
-80 -107 0
-80 -108 0
-80 -109 0
-80 -110 0
-80 -111 0
-80 -112 0
-80 -113 0
-80 -114 0
-80 -115 0
-80 -116 0
-80 -117 0
-80 -118 0
-80 -119 0
-80 -120 0
-80 -121 0
-80 -122 0
-80 -123 0
-80 -124 0
-80 -125 0
-80 -126 0
-80 -127 0
-80 -128 0
-81 -82 0
-81 -83 0
-81 -84 0
-81 -85 0
-81 -86 0
-81 -87 0
-81 -88 0
-81 -89 0
-81 -90 0
-81 -91 0
-81 -92 0
-81 -93 0
-81 -94 0
-81 -95 0
-81 -96 0
-81 -97 0
-81 -98 0
-81 -99 0
-81 -100 0
-81 -101 0
-81 -102 0
-81 -103 0
-81 -104 0
-81 -105 0
-81 -106 0
-81 -107 0
-81 -108 0
-81 -109 0
-81 -110 0
-81 -111 0
-81 -112 0
-81 -113 0
-81 -114 0
-81 -115 0
-81 -116 0
-81 -117 0
-81 -118 0
-81 -119 0
-81 -120 0
-81 -121 0
-81 -122 0
-81 -123 0
-81 -124 0
-81 -125 0
-81 -126 0
-81 -127 0
-81 -128 0
-82 -83 0
-82 -84 0
-82 -85 0
-82 -86 0
-82 -87 0
-82 -88 0
-82 -89 0
-82 -90 0
-82 -91 0
-82 -92 0
-82 -93 0
-82 -94 0
-82 -95 0
-82 -96 0
-82 -97 0
-82 -98 0
-82 -99 0
-82 -100 0
-82 -101 0
-82 -102 0
-82 -103 0
-82 -104 0
-82 -105 0
-82 -106 0
-82 -107 0
-82 -108 0
-82 -109 0
-82 -110 0
-82 -111 0
-82 -112 0
-82 -113 0
-82 -114 0
-82 -115 0
-82 -116 0
-82 -117 0
-82 -118 0
-82 -119 0
-82 -120 0
-82 -121 0
-82 -122 0
-82 -123 0
-82 -124 0
-82 -125 0
-82 -126 0
-82 -127 0
-82 -128 0
-83 -84 0
-83 -85 0
-83 -86 0
-83 -87 0
-83 -88 0
-83 -89 0
-83 -90 0
-83 -91 0
-83 -92 0
-83 -93 0
-83 -94 0
-83 -95 0
-83 -96 0
-83 -97 0
-83 -98 0
-83 -99 0
-83 -100 0
-83 -101 0
-83 -102 0
-83 -103 0
-83 -104 0
-83 -105 0
-83 -106 0
-83 -107 0
-83 -108 0
-83 -109 0
-83 -110 0
-83 -111 0
-83 -112 0
-83 -113 0
-83 -114 0
-83 -115 0
-83 -116 0
-83 -117 0
-83 -118 0
-83 -119 0
-83 -120 0
-83 -121 0
-83 -122 0
-83 -123 0
-83 -124 0
-83 -125 0
-83 -126 0
-83 -127 0
-83 -128 0
-84 -85 0
-84 -86 0
-84 -87 0
-84 -88 0
-84 -89 0
-84 -90 0
-84 -91 0
-84 -92 0
-84 -93 0
-84 -94 0
-84 -95 0
-84 -96 0
-84 -97 0
-84 -98 0
-84 -99 0
-84 -100 0
-84 -101 0
-84 -102 0
-84 -103 0
-84 -104 0
-84 -105 0
-84 -106 0
-84 -107 0
-84 -108 0
-84 -109 0
-84 -110 0
-84 -111 0
-84 -112 0
-84 -113 0
-84 -114 0
-84 -115 0
-84 -116 0
-84 -117 0
-84 -118 0
-84 -119 0
-84 -120 0
-84 -121 0
-84 -122 0
-84 -123 0
-84 -124 0
-84 -125 0
-84 -126 0
-84 -127 0
-84 -128 0
-85 -86 0
-85 -87 0
-85 -88 0
-85 -89 0
-85 -90 0
-85 -91 0
-85 -92 0
-85 -93 0
-85 -94 0
-85 -95 0
-85 -96 0
-85 -97 0
-85 -98 0
-85 -99 0
-85 -100 0
-85 -101 0
-85 -102 0
-85 -103 0
-85 -104 0
-85 -105 0
-85 -106 0
-85 -107 0
-85 -108 0
-85 -109 0
-85 -110 0
-85 -111 0
-85 -112 0
-85 -113 0
-85 -114 0
-85 -115 0
-85 -116 0
-85 -117 0
-85 -118 0
-85 -119 0
-85 -120 0
-85 -121 0
-85 -122 0
-85 -123 0
-85 -124 0
-85 -125 0
-85 -126 0
-85 -127 0
-85 -128 0
-86 -87 0
-86 -88 0
-86 -89 0
-86 -90 0
-86 -91 0
-86 -92 0
-86 -93 0
-86 -94 0
-86 -95 0
-86 -96 0
-86 -97 0
-86 -98 0
-86 -99 0
-86 -100 0
-86 -101 0
-86 -102 0
-86 -103 0
-86 -104 0
-86 -105 0
-86 -106 0
-86 -107 0
-86 -108 0
-86 -109 0
-86 -110 0
-86 -111 0
-86 -112 0
-86 -113 0
-86 -114 0
-86 -115 0
-86 -116 0
-86 -117 0
-86 -118 0
-86 -119 0
-86 -120 0
-86 -121 0
-86 -122 0
-86 -123 0
-86 -124 0
-86 -125 0
-86 -126 0
-86 -127 0
-86 -128 0
-87 -88 0
-87 -89 0
-87 -90 0
-87 -91 0
-87 -92 0
-87 -93 0
-87 -94 0
-87 -95 0
-87 -96 0
-87 -97 0
-87 -98 0
-87 -99 0
-87 -100 0
-87 -101 0
-87 -102 0
-87 -103 0
-87 -104 0
-87 -105 0
-87 -106 0
-87 -107 0
-87 -108 0
-87 -109 0
-87 -110 0
-87 -111 0
-87 -112 0
-87 -113 0
-87 -114 0
-87 -115 0
-87 -116 0
-87 -117 0
-87 -118 0
-87 -119 0
-87 -120 0
-87 -121 0
-87 -122 0
-87 -123 0
-87 -124 0
-87 -125 0
-87 -126 0
-87 -127 0
-87 -128 0
-88 -89 0
-88 -90 0
-88 -91 0
-88 -92 0
-88 -93 0
-88 -94 0
-88 -95 0
-88 -96 0
-88 -97 0
-88 -98 0
-88 -99 0
-88 -100 0
-88 -101 0
-88 -102 0
-88 -103 0
-88 -104 0
-88 -105 0
-88 -106 0
-88 -107 0
-88 -108 0
-88 -109 0
-88 -110 0
-88 -111 0
-88 -112 0
-88 -113 0
-88 -114 0
-88 -115 0
-88 -116 0
-88 -117 0
-88 -118 0
-88 -119 0
-88 -120 0
-88 -121 0
-88 -122 0
-88 -123 0
-88 -124 0
-88 -125 0
-88 -126 0
-88 -127 0
-88 -128 0
-89 -90 0
-89 -91 0
-89 -92 0
-89 -93 0
-89 -94 0
-89 -95 0
-89 -96 0
-89 -97 0
-89 -98 0
-89 -99 0
-89 -100 0
-89 -101 0
-89 -102 0
-89 -103 0
-89 -104 0
-89 -105 0
-89 -106 0
-89 -107 0
-89 -108 0
-89 -109 0
-89 -110 0
-89 -111 0
-89 -112 0
-89 -113 0
-89 -114 0
-89 -115 0
-89 -116 0
-89 -117 0
-89 -118 0
-89 -119 0
-89 -120 0
-89 -121 0
-89 -122 0
-89 -123 0
-89 -124 0
-89 -125 0
-89 -126 0
-89 -127 0
-89 -128 0
-90 -91 0
-90 -92 0
-90 -93 0
-90 -94 0
-90 -95 0
-90 -96 0
-90 -97 0
-90 -98 0
-90 -99 0
-90 -100 0
-90 -101 0
-90 -102 0
-90 -103 0
-90 -104 0
-90 -105 0
-90 -106 0
-90 -107 0
-90 -108 0
-90 -109 0
-90 -110 0
-90 -111 0
-90 -112 0
-90 -113 0
-90 -114 0
-90 -115 0
-90 -116 0
-90 -117 0
-90 -118 0
-90 -119 0
-90 -120 0
-90 -121 0
-90 -122 0
-90 -123 0
-90 -124 0
-90 -125 0
-90 -126 0
-90 -127 0
-90 -128 0
-91 -92 0
-91 -93 0
-91 -94 0
-91 -95 0
-91 -96 0
-91 -97 0
-91 -98 0
-91 -99 0
-91 -100 0
-91 -101 0
-91 -102 0
-91 -103 0
-91 -104 0
-91 -105 0
-91 -106 0
-91 -107 0
-91 -108 0
-91 -109 0
-91 -110 0
-91 -111 0
-91 -112 0
-91 -113 0
-91 -114 0
-91 -115 0
-91 -116 0
-91 -117 0
-91 -118 0
-91 -119 0
-91 -120 0
-91 -121 0
-91 -122 0
-91 -123 0
-91 -124 0
-91 -125 0
-91 -126 0
-91 -127 0
-91 -128 0
-92 -93 0
-92 -94 0
-92 -95 0
-92 -96 0
-92 -97 0
-92 -98 0
-92 -99 0
-92 -100 0
-92 -101 0
-92 -102 0
-92 -103 0
-92 -104 0
-92 -105 0
-92 -106 0
-92 -107 0
-92 -108 0
-92 -109 0
-92 -110 0
-92 -111 0
-92 -112 0
-92 -113 0
-92 -114 0
-92 -115 0
-92 -116 0
-92 -117 0
-92 -118 0
-92 -119 0
-92 -120 0
-92 -121 0
-92 -122 0
-92 -123 0
-92 -124 0
-92 -125 0
-92 -126 0
-92 -127 0
-92 -128 0
-93 -94 0
-93 -95 0
-93 -96 0
-93 -97 0
-93 -98 0
-93 -99 0
-93 -100 0
-93 -101 0
-93 -102 0
-93 -103 0
-93 -104 0
-93 -105 0
-93 -106 0
-93 -107 0
-93 -108 0
-93 -109 0
-93 -110 0
-93 -111 0
-93 -112 0
-93 -113 0
-93 -114 0
-93 -115 0
-93 -116 0
-93 -117 0
-93 -118 0
-93 -119 0
-93 -120 0
-93 -121 0
-93 -122 0
-93 -123 0
-93 -124 0
-93 -125 0
-93 -126 0
-93 -127 0
-93 -128 0
-94 -95 0
-94 -96 0
-94 -97 0
-94 -98 0
-94 -99 0
-94 -100 0
-94 -101 0
-94 -102 0
-94 -103 0
-94 -104 0
-94 -105 0
-94 -106 0
-94 -107 0
-94 -108 0
-94 -109 0
-94 -110 0
-94 -111 0
-94 -112 0
-94 -113 0
-94 -114 0
-94 -115 0
-94 -116 0
-94 -117 0
-94 -118 0
-94 -119 0
-94 -120 0
-94 -121 0
-94 -122 0
-94 -123 0
-94 -124 0
-94 -125 0
-94 -126 0
-94 -127 0
-94 -128 0
-95 -96 0
-95 -97 0
-95 -98 0
-95 -99 0
-95 -100 0
-95 -101 0
-95 -102 0
-95 -103 0
-95 -104 0
-95 -105 0
-95 -106 0
-95 -107 0
-95 -108 0
-95 -109 0
-95 -110 0
-95 -111 0
-95 -112 0
-95 -113 0
-95 -114 0
-95 -115 0
-95 -116 0
-95 -117 0
-95 -118 0
-95 -119 0
-95 -120 0
-95 -121 0
-95 -122 0
-95 -123 0
-95 -124 0
-95 -125 0
-95 -126 0
-95 -127 0
-95 -128 0
-96 -97 0
-96 -98 0
-96 -99 0
-96 -100 0
-96 -101 0
-96 -102 0
-96 -103 0
-96 -104 0
-96 -105 0
-96 -106 0
-96 -107 0
-96 -108 0
-96 -109 0
-96 -110 0
-96 -111 0
-96 -112 0
-96 -113 0
-96 -114 0
-96 -115 0
-96 -116 0
-96 -117 0
-96 -118 0
-96 -119 0
-96 -120 0
-96 -121 0
-96 -122 0
-96 -123 0
-96 -124 0
-96 -125 0
-96 -126 0
-96 -127 0
-96 -128 0
-97 -98 0
-97 -99 0
-97 -100 0
-97 -101 0
-97 -102 0
-97 -103 0
-97 -104 0
-97 -105 0
-97 -106 0
-97 -107 0
-97 -108 0
-97 -109 0
-97 -110 0
-97 -111 0
-97 -112 0
-97 -113 0
-97 -114 0
-97 -115 0
-97 -116 0
-97 -117 0
-97 -118 0
-97 -119 0
-97 -120 0
-97 -121 0
-97 -122 0
-97 -123 0
-97 -124 0
-97 -125 0
-97 -126 0
-97 -127 0
-97 -128 0
-98 -99 0
-98 -100 0
-98 -101 0
-98 -102 0
-98 -103 0
-98 -104 0
-98 -105 0
-98 -106 0
-98 -107 0
-98 -108 0
-98 -109 0
-98 -110 0
-98 -111 0
-98 -112 0
-98 -113 0
-98 -114 0
-98 -115 0
-98 -116 0
-98 -117 0
-98 -118 0
-98 -119 0
-98 -120 0
-98 -121 0
-98 -122 0
-98 -123 0
-98 -124 0
-98 -125 0
-98 -126 0
-98 -127 0
-98 -128 0
-99 -100 0
-99 -101 0
-99 -102 0
-99 -103 0
-99 -104 0
-99 -105 0
-99 -106 0
-99 -107 0
-99 -108 0
-99 -109 0
-99 -110 0
-99 -111 0
-99 -112 0
-99 -113 0
-99 -114 0
-99 -115 0
-99 -116 0
-99 -117 0
-99 -118 0
-99 -119 0
-99 -120 0
-99 -121 0
-99 -122 0
-99 -123 0
-99 -124 0
-99 -125 0
-99 -126 0
-99 -127 0
-99 -128 0
-100 -101 0
-100 -102 0
-100 -103 0
-100 -104 0
-100 -105 0
-100 -106 0
-100 -107 0
-100 -108 0
-100 -109 0
-100 -110 0
-100 -111 0
-100 -112 0
-100 -113 0
-100 -114 0
-100 -115 0
-100 -116 0
-100 -117 0
-100 -118 0
-100 -119 0
-100 -120 0
-100 -121 0
-100 -122 0
-100 -123 0
-100 -124 0
-100 -125 0
-100 -126 0
-100 -127 0
-100 -128 0
-101 -102 0
-101 -103 0
-101 -104 0
-101 -105 0
-101 -106 0
-101 -107 0
-101 -108 0
-101 -109 0
-101 -110 0
-101 -111 0
-101 -112 0
-101 -113 0
-101 -114 0
-101 -115 0
-101 -116 0
-101 -117 0
-101 -118 0
-101 -119 0
-101 -120 0
-101 -121 0
-101 -122 0
-101 -123 0
-101 -124 0
-101 -125 0
-101 -126 0
-101 -127 0
-101 -128 0
-102 -103 0
-102 -104 0
-102 -105 0
-102 -106 0
-102 -107 0
-102 -108 0
-102 -109 0
-102 -110 0
-102 -111 0
-102 -112 0
-102 -113 0
-102 -114 0
-102 -115 0
-102 -116 0
-102 -117 0
-102 -118 0
-102 -119 0
-102 -120 0
-102 -121 0
-102 -122 0
-102 -123 0
-102 -124 0
-102 -125 0
-102 -126 0
-102 -127 0
-102 -128 0
-103 -104 0
-103 -105 0
-103 -106 0
-103 -107 0
-103 -108 0
-103 -109 0
-103 -110 0
-103 -111 0
-103 -112 0
-103 -113 0
-103 -114 0
-103 -115 0
-103 -116 0
-103 -117 0
-103 -118 0
-103 -119 0
-103 -120 0
-103 -121 0
-103 -122 0
-103 -123 0
-103 -124 0
-103 -125 0
-103 -126 0
-103 -127 0
-103 -128 0
-104 -105 0
-104 -106 0
-104 -107 0
-104 -108 0
-104 -109 0
-104 -110 0
-104 -111 0
-104 -112 0
-104 -113 0
-104 -114 0
-104 -115 0
-104 -116 0
-104 -117 0
-104 -118 0
-104 -119 0
-104 -120 0
-104 -121 0
-104 -122 0
-104 -123 0
-104 -124 0
-104 -125 0
-104 -126 0
-104 -127 0
-104 -128 0
-105 -106 0
-105 -107 0
-105 -108 0
-105 -109 0
-105 -110 0
-105 -111 0
-105 -112 0
-105 -113 0
-105 -114 0
-105 -115 0
-105 -116 0
-105 -117 0
-105 -118 0
-105 -119 0
-105 -120 0
-105 -121 0
-105 -122 0
-105 -123 0
-105 -124 0
-105 -125 0
-105 -126 0
-105 -127 0
-105 -128 0
-106 -107 0
-106 -108 0
-106 -109 0
-106 -110 0
-106 -111 0
-106 -112 0
-106 -113 0
-106 -114 0
-106 -115 0
-106 -116 0
-106 -117 0
-106 -118 0
-106 -119 0
-106 -120 0
-106 -121 0
-106 -122 0
-106 -123 0
-106 -124 0
-106 -125 0
-106 -126 0
-106 -127 0
-106 -128 0
-107 -108 0
-107 -109 0
-107 -110 0
-107 -111 0
-107 -112 0
-107 -113 0
-107 -114 0
-107 -115 0
-107 -116 0
-107 -117 0
-107 -118 0
-107 -119 0
-107 -120 0
-107 -121 0
-107 -122 0
-107 -123 0
-107 -124 0
-107 -125 0
-107 -126 0
-107 -127 0
-107 -128 0
-108 -109 0
-108 -110 0
-108 -111 0
-108 -112 0
-108 -113 0
-108 -114 0
-108 -115 0
-108 -116 0
-108 -117 0
-108 -118 0
-108 -119 0
-108 -120 0
-108 -121 0
-108 -122 0
-108 -123 0
-108 -124 0
-108 -125 0
-108 -126 0
-108 -127 0
-108 -128 0
-109 -110 0
-109 -111 0
-109 -112 0
-109 -113 0
-109 -114 0
-109 -115 0
-109 -116 0
-109 -117 0
-109 -118 0
-109 -119 0
-109 -120 0
-109 -121 0
-109 -122 0
-109 -123 0
-109 -124 0
-109 -125 0
-109 -126 0
-109 -127 0
-109 -128 0
-110 -111 0
-110 -112 0
-110 -113 0
-110 -114 0
-110 -115 0
-110 -116 0
-110 -117 0
-110 -118 0
-110 -119 0
-110 -120 0
-110 -121 0
-110 -122 0
-110 -123 0
-110 -124 0
-110 -125 0
-110 -126 0
-110 -127 0
-110 -128 0
-111 -112 0
-111 -113 0
-111 -114 0
-111 -115 0
-111 -116 0
-111 -117 0
-111 -118 0
-111 -119 0
-111 -120 0
-111 -121 0
-111 -122 0
-111 -123 0
-111 -124 0
-111 -125 0
-111 -126 0
-111 -127 0
-111 -128 0
-112 -113 0
-112 -114 0
-112 -115 0
-112 -116 0
-112 -117 0
-112 -118 0
-112 -119 0
-112 -120 0
-112 -121 0
-112 -122 0
-112 -123 0
-112 -124 0
-112 -125 0
-112 -126 0
-112 -127 0
-112 -128 0
-113 -114 0
-113 -115 0
-113 -116 0
-113 -117 0
-113 -118 0
-113 -119 0
-113 -120 0
-113 -121 0
-113 -122 0
-113 -123 0
-113 -124 0
-113 -125 0
-113 -126 0
-113 -127 0
-113 -128 0
-114 -115 0
-114 -116 0
-114 -117 0
-114 -118 0
-114 -119 0
-114 -120 0
-114 -121 0
-114 -122 0
-114 -123 0
-114 -124 0
-114 -125 0
-114 -126 0
-114 -127 0
-114 -128 0
-115 -116 0
-115 -117 0
-115 -118 0
-115 -119 0
-115 -120 0
-115 -121 0
-115 -122 0
-115 -123 0
-115 -124 0
-115 -125 0
-115 -126 0
-115 -127 0
-115 -128 0
-116 -117 0
-116 -118 0
-116 -119 0
-116 -120 0
-116 -121 0
-116 -122 0
-116 -123 0
-116 -124 0
-116 -125 0
-116 -126 0
-116 -127 0
-116 -128 0
-117 -118 0
-117 -119 0
-117 -120 0
-117 -121 0
-117 -122 0
-117 -123 0
-117 -124 0
-117 -125 0
-117 -126 0
-117 -127 0
-117 -128 0
-118 -119 0
-118 -120 0
-118 -121 0
-118 -122 0
-118 -123 0
-118 -124 0
-118 -125 0
-118 -126 0
-118 -127 0
-118 -128 0
-119 -120 0
-119 -121 0
-119 -122 0
-119 -123 0
-119 -124 0
-119 -125 0
-119 -126 0
-119 -127 0
-119 -128 0
-120 -121 0
-120 -122 0
-120 -123 0
-120 -124 0
-120 -125 0
-120 -126 0
-120 -127 0
-120 -128 0
-121 -122 0
-121 -123 0
-121 -124 0
-121 -125 0
-121 -126 0
-121 -127 0
-121 -128 0
-122 -123 0
-122 -124 0
-122 -125 0
-122 -126 0
-122 -127 0
-122 -128 0
-123 -124 0
-123 -125 0
-123 -126 0
-123 -127 0
-123 -128 0
-124 -125 0
-124 -126 0
-124 -127 0
-124 -128 0
-125 -126 0
-125 -127 0
-125 -128 0
-126 -127 0
-126 -128 0
-127 -128 0
129 130 131 132 133 134 135 136 137 138 139 140 141 142 143 144 145 146 147 148 149 150 151 152 153 154 155 156 157 158 159 160 161 162 163 164 165 166 167 168 169 170 171 172 173 174 175 176 177 178 179 180 181 182 183 184 185 186 187 188 189 190 191 192 193 194 195 196 197 198 199 200 201 202 203 204 205 206 207 208 209 210 211 212 213 214 215 216 217 218 219 220 221 222 223 224 225 226 227 228 229 230 231 232 233 234 235 236 237 238 239 240 241 242 243 244 245 246 247 248 249 250 251 252 253 254 255 256 0
-129 -130 0
-129 -131 0
-129 -132 0
-129 -133 0
-129 -134 0
-129 -135 0
-129 -136 0
-129 -137 0
-129 -138 0
-129 -139 0
-129 -140 0
-129 -141 0
-129 -142 0
-129 -143 0
-129 -144 0
-129 -145 0
-129 -146 0
-129 -147 0
-129 -148 0
-129 -149 0
-129 -150 0
-129 -151 0
-129 -152 0
-129 -153 0
-129 -154 0
-129 -155 0
-129 -156 0
-129 -157 0
-129 -158 0
-129 -159 0
-129 -160 0
-129 -161 0
-129 -162 0
-129 -163 0
-129 -164 0
-129 -165 0
-129 -166 0
-129 -167 0
-129 -168 0
-129 -169 0
-129 -170 0
-129 -171 0
-129 -172 0
-129 -173 0
-129 -174 0
-129 -175 0
-129 -176 0
-129 -177 0
-129 -178 0
-129 -179 0
-129 -180 0
-129 -181 0
-129 -182 0
-129 -183 0
-129 -184 0
-129 -185 0
-129 -186 0
-129 -187 0
-129 -188 0
-129 -189 0
-129 -190 0
-129 -191 0
-129 -192 0
-129 -193 0
-129 -194 0
-129 -195 0
-129 -196 0
-129 -197 0
-129 -198 0
-129 -199 0
-129 -200 0
-129 -201 0
-129 -202 0
-129 -203 0
-129 -204 0
-129 -205 0
-129 -206 0
-129 -207 0
-129 -208 0
-129 -209 0
-129 -210 0
-129 -211 0
-129 -212 0
-129 -213 0
-129 -214 0
-129 -215 0
-129 -216 0
-129 -217 0
-129 -218 0
-129 -219 0
-129 -220 0
-129 -221 0
-129 -222 0
-129 -223 0
-129 -224 0
-129 -225 0
-129 -226 0
-129 -227 0
-129 -228 0
-129 -229 0
-129 -230 0
-129 -231 0
-129 -232 0
-129 -233 0
-129 -234 0
-129 -235 0
-129 -236 0
-129 -237 0
-129 -238 0
-129 -239 0
-129 -240 0
-129 -241 0
-129 -242 0
-129 -243 0
-129 -244 0
-129 -245 0
-129 -246 0
-129 -247 0
-129 -248 0
-129 -249 0
-129 -250 0
-129 -251 0
-129 -252 0
-129 -253 0
-129 -254 0
-129 -255 0
-129 -256 0
-130 -131 0
-130 -132 0
-130 -133 0
-130 -134 0
-130 -135 0
-130 -136 0
-130 -137 0
-130 -138 0
-130 -139 0
-130 -140 0
-130 -141 0
-130 -142 0
-130 -143 0
-130 -144 0
-130 -145 0
-130 -146 0
-130 -147 0
-130 -148 0
-130 -149 0
-130 -150 0
-130 -151 0
-130 -152 0
-130 -153 0
-130 -154 0
-130 -155 0
-130 -156 0
-130 -157 0
-130 -158 0
-130 -159 0
-130 -160 0
-130 -161 0
-130 -162 0
-130 -163 0
-130 -164 0
-130 -165 0
-130 -166 0
-130 -167 0
-130 -168 0
-130 -169 0
-130 -170 0
-130 -171 0
-130 -172 0
-130 -173 0
-130 -174 0
-130 -175 0
-130 -176 0
-130 -177 0
-130 -178 0
-130 -179 0
-130 -180 0
-130 -181 0
-130 -182 0
-130 -183 0
-130 -184 0
-130 -185 0
-130 -186 0
-130 -187 0
-130 -188 0
-130 -189 0
-130 -190 0
-130 -191 0
-130 -192 0
-130 -193 0
-130 -194 0
-130 -195 0
-130 -196 0
-130 -197 0
-130 -198 0
-130 -199 0
-130 -200 0
-130 -201 0
-130 -202 0
-130 -203 0
-130 -204 0
-130 -205 0
-130 -206 0
-130 -207 0
-130 -208 0
-130 -209 0
-130 -210 0
-130 -211 0
-130 -212 0
-130 -213 0
-130 -214 0
-130 -215 0
-130 -216 0
-130 -217 0
-130 -218 0
-130 -219 0
-130 -220 0
-130 -221 0
-130 -222 0
-130 -223 0
-130 -224 0
-130 -225 0
-130 -226 0
-130 -227 0
-130 -228 0
-130 -229 0
-130 -230 0
-130 -231 0
-130 -232 0
-130 -233 0
-130 -234 0
-130 -235 0
-130 -236 0
-130 -237 0
-130 -238 0
-130 -239 0
-130 -240 0
-130 -241 0
-130 -242 0
-130 -243 0
-130 -244 0
-130 -245 0
-130 -246 0
-130 -247 0
-130 -248 0
-130 -249 0
-130 -250 0
-130 -251 0
-130 -252 0
-130 -253 0
-130 -254 0
-130 -255 0
-130 -256 0
-131 -132 0
-131 -133 0
-131 -134 0
-131 -135 0
-131 -136 0
-131 -137 0
-131 -138 0
-131 -139 0
-131 -140 0
-131 -141 0
-131 -142 0
-131 -143 0
-131 -144 0
-131 -145 0
-131 -146 0
-131 -147 0
-131 -148 0
-131 -149 0
-131 -150 0
-131 -151 0
-131 -152 0
-131 -153 0
-131 -154 0
-131 -155 0
-131 -156 0
-131 -157 0
-131 -158 0
-131 -159 0
-131 -160 0
-131 -161 0
-131 -162 0
-131 -163 0
-131 -164 0
-131 -165 0
-131 -166 0
-131 -167 0
-131 -168 0
-131 -169 0
-131 -170 0
-131 -171 0
-131 -172 0
-131 -173 0
-131 -174 0
-131 -175 0
-131 -176 0
-131 -177 0
-131 -178 0
-131 -179 0
-131 -180 0
-131 -181 0
-131 -182 0
-131 -183 0
-131 -184 0
-131 -185 0
-131 -186 0
-131 -187 0
-131 -188 0
-131 -189 0
-131 -190 0
-131 -191 0
-131 -192 0
-131 -193 0
-131 -194 0
-131 -195 0
-131 -196 0
-131 -197 0
-131 -198 0
-131 -199 0
-131 -200 0
-131 -201 0
-131 -202 0
-131 -203 0
-131 -204 0
-131 -205 0
-131 -206 0
-131 -207 0
-131 -208 0
-131 -209 0
-131 -210 0
-131 -211 0
-131 -212 0
-131 -213 0
-131 -214 0
-131 -215 0
-131 -216 0
-131 -217 0
-131 -218 0
-131 -219 0
-131 -220 0
-131 -221 0
-131 -222 0
-131 -223 0
-131 -224 0
-131 -225 0
-131 -226 0
-131 -227 0
-131 -228 0
-131 -229 0
-131 -230 0
-131 -231 0
-131 -232 0
-131 -233 0
-131 -234 0
-131 -235 0
-131 -236 0
-131 -237 0
-131 -238 0
-131 -239 0
-131 -240 0
-131 -241 0
-131 -242 0
-131 -243 0
-131 -244 0
-131 -245 0
-131 -246 0
-131 -247 0
-131 -248 0
-131 -249 0
-131 -250 0
-131 -251 0
-131 -252 0
-131 -253 0
-131 -254 0
-131 -255 0
-131 -256 0
-132 -133 0
-132 -134 0
-132 -135 0
-132 -136 0
-132 -137 0
-132 -138 0
-132 -139 0
-132 -140 0
-132 -141 0
-132 -142 0
-132 -143 0
-132 -144 0
-132 -145 0
-132 -146 0
-132 -147 0
-132 -148 0
-132 -149 0
-132 -150 0
-132 -151 0
-132 -152 0
-132 -153 0
-132 -154 0
-132 -155 0
-132 -156 0
-132 -157 0
-132 -158 0
-132 -159 0
-132 -160 0
-132 -161 0
-132 -162 0
-132 -163 0
-132 -164 0
-132 -165 0
-132 -166 0
-132 -167 0
-132 -168 0
-132 -169 0
-132 -170 0
-132 -171 0
-132 -172 0
-132 -173 0
-132 -174 0
-132 -175 0
-132 -176 0
-132 -177 0
-132 -178 0
-132 -179 0
-132 -180 0
-132 -181 0
-132 -182 0
-132 -183 0
-132 -184 0
-132 -185 0
-132 -186 0
-132 -187 0
-132 -188 0
-132 -189 0
-132 -190 0
-132 -191 0
-132 -192 0
-132 -193 0
-132 -194 0
-132 -195 0
-132 -196 0
-132 -197 0
-132 -198 0
-132 -199 0
-132 -200 0
-132 -201 0
-132 -202 0
-132 -203 0
-132 -204 0
-132 -205 0
-132 -206 0
-132 -207 0
-132 -208 0
-132 -209 0
-132 -210 0
-132 -211 0
-132 -212 0
-132 -213 0
-132 -214 0
-132 -215 0
-132 -216 0
-132 -217 0
-132 -218 0
-132 -219 0
-132 -220 0
-132 -221 0
-132 -222 0
-132 -223 0
-132 -224 0
-132 -225 0
-132 -226 0
-132 -227 0
-132 -228 0
-132 -229 0
-132 -230 0
-132 -231 0
-132 -232 0
-132 -233 0
-132 -234 0
-132 -235 0
-132 -236 0
-132 -237 0
-132 -238 0
-132 -239 0
-132 -240 0
-132 -241 0
-132 -242 0
-132 -243 0
-132 -244 0
-132 -245 0
-132 -246 0
-132 -247 0
-132 -248 0
-132 -249 0
-132 -250 0
-132 -251 0
-132 -252 0
-132 -253 0
-132 -254 0
-132 -255 0
-132 -256 0
-133 -134 0
-133 -135 0
-133 -136 0
-133 -137 0
-133 -138 0
-133 -139 0
-133 -140 0
-133 -141 0
-133 -142 0
-133 -143 0
-133 -144 0
-133 -145 0
-133 -146 0
-133 -147 0
-133 -148 0
-133 -149 0
-133 -150 0
-133 -151 0
-133 -152 0
-133 -153 0
-133 -154 0
-133 -155 0
-133 -156 0
-133 -157 0
-133 -158 0
-133 -159 0
-133 -160 0
-133 -161 0
-133 -162 0
-133 -163 0
-133 -164 0
-133 -165 0
-133 -166 0
-133 -167 0
-133 -168 0
-133 -169 0
-133 -170 0
-133 -171 0
-133 -172 0
-133 -173 0
-133 -174 0
-133 -175 0
-133 -176 0
-133 -177 0
-133 -178 0
-133 -179 0
-133 -180 0
-133 -181 0
-133 -182 0
-133 -183 0
-133 -184 0
-133 -185 0
-133 -186 0
-133 -187 0
-133 -188 0
-133 -189 0
-133 -190 0
-133 -191 0
-133 -192 0
-133 -193 0
-133 -194 0
-133 -195 0
-133 -196 0
-133 -197 0
-133 -198 0
-133 -199 0
-133 -200 0
-133 -201 0
-133 -202 0
-133 -203 0
-133 -204 0
-133 -205 0
-133 -206 0
-133 -207 0
-133 -208 0
-133 -209 0
-133 -210 0
-133 -211 0
-133 -212 0
-133 -213 0
-133 -214 0
-133 -215 0
-133 -216 0
-133 -217 0
-133 -218 0
-133 -219 0
-133 -220 0
-133 -221 0
-133 -222 0
-133 -223 0
-133 -224 0
-133 -225 0
-133 -226 0
-133 -227 0
-133 -228 0
-133 -229 0
-133 -230 0
-133 -231 0
-133 -232 0
-133 -233 0
-133 -234 0
-133 -235 0
-133 -236 0
-133 -237 0
-133 -238 0
-133 -239 0
-133 -240 0
-133 -241 0
-133 -242 0
-133 -243 0
-133 -244 0
-133 -245 0
-133 -246 0
-133 -247 0
-133 -248 0
-133 -249 0
-133 -250 0
-133 -251 0
-133 -252 0
-133 -253 0
-133 -254 0
-133 -255 0
-133 -256 0
-134 -135 0
-134 -136 0
-134 -137 0
-134 -138 0
-134 -139 0
-134 -140 0
-134 -141 0
-134 -142 0
-134 -143 0
-134 -144 0
-134 -145 0
-134 -146 0
-134 -147 0
-134 -148 0
-134 -149 0
-134 -150 0
-134 -151 0
-134 -152 0
-134 -153 0
-134 -154 0
-134 -155 0
-134 -156 0
-134 -157 0
-134 -158 0
-134 -159 0
-134 -160 0
-134 -161 0
-134 -162 0
-134 -163 0
-134 -164 0
-134 -165 0
-134 -166 0
-134 -167 0
-134 -168 0
-134 -169 0
-134 -170 0
-134 -171 0
-134 -172 0
-134 -173 0
-134 -174 0
-134 -175 0
-134 -176 0
-134 -177 0
-134 -178 0
-134 -179 0
-134 -180 0
-134 -181 0
-134 -182 0
-134 -183 0
-134 -184 0
-134 -185 0
-134 -186 0
-134 -187 0
-134 -188 0
-134 -189 0
-134 -190 0
-134 -191 0
-134 -192 0
-134 -193 0
-134 -194 0
-134 -195 0
-134 -196 0
-134 -197 0
-134 -198 0
-134 -199 0
-134 -200 0
-134 -201 0
-134 -202 0
-134 -203 0
-134 -204 0
-134 -205 0
-134 -206 0
-134 -207 0
-134 -208 0
-134 -209 0
-134 -210 0
-134 -211 0
-134 -212 0
-134 -213 0
-134 -214 0
-134 -215 0
-134 -216 0
-134 -217 0
-134 -218 0
-134 -219 0
-134 -220 0
-134 -221 0
-134 -222 0
-134 -223 0
-134 -224 0
-134 -225 0
-134 -226 0
-134 -227 0
-134 -228 0
-134 -229 0
-134 -230 0
-134 -231 0
-134 -232 0
-134 -233 0
-134 -234 0
-134 -235 0
-134 -236 0
-134 -237 0
-134 -238 0
-134 -239 0
-134 -240 0
-134 -241 0
-134 -242 0
-134 -243 0
-134 -244 0
-134 -245 0
-134 -246 0
-134 -247 0
-134 -248 0
-134 -249 0
-134 -250 0
-134 -251 0
-134 -252 0
-134 -253 0
-134 -254 0
-134 -255 0
-134 -256 0
-135 -136 0
-135 -137 0
-135 -138 0
-135 -139 0
-135 -140 0
-135 -141 0
-135 -142 0
-135 -143 0
-135 -144 0
-135 -145 0
-135 -146 0
-135 -147 0
-135 -148 0
-135 -149 0
-135 -150 0
-135 -151 0
-135 -152 0
-135 -153 0
-135 -154 0
-135 -155 0
-135 -156 0
-135 -157 0
-135 -158 0
-135 -159 0
-135 -160 0
-135 -161 0
-135 -162 0
-135 -163 0
-135 -164 0
-135 -165 0
-135 -166 0
-135 -167 0
-135 -168 0
-135 -169 0
-135 -170 0
-135 -171 0
-135 -172 0
-135 -173 0
-135 -174 0
-135 -175 0
-135 -176 0
-135 -177 0
-135 -178 0
-135 -179 0
-135 -180 0
-135 -181 0
-135 -182 0
-135 -183 0
-135 -184 0
-135 -185 0
-135 -186 0
-135 -187 0
-135 -188 0
-135 -189 0
-135 -190 0
-135 -191 0
-135 -192 0
-135 -193 0
-135 -194 0
-135 -195 0
-135 -196 0
-135 -197 0
-135 -198 0
-135 -199 0
-135 -200 0
-135 -201 0
-135 -202 0
-135 -203 0
-135 -204 0
-135 -205 0
-135 -206 0
-135 -207 0
-135 -208 0
-135 -209 0
-135 -210 0
-135 -211 0
-135 -212 0
-135 -213 0
-135 -214 0
-135 -215 0
-135 -216 0
-135 -217 0
-135 -218 0
-135 -219 0
-135 -220 0
-135 -221 0
-135 -222 0
-135 -223 0
-135 -224 0
-135 -225 0
-135 -226 0
-135 -227 0
-135 -228 0
-135 -229 0
-135 -230 0
-135 -231 0
-135 -232 0
-135 -233 0
-135 -234 0
-135 -235 0
-135 -236 0
-135 -237 0
-135 -238 0
-135 -239 0
-135 -240 0
-135 -241 0
-135 -242 0
-135 -243 0
-135 -244 0
-135 -245 0
-135 -246 0
-135 -247 0
-135 -248 0
-135 -249 0
-135 -250 0
-135 -251 0
-135 -252 0
-135 -253 0
-135 -254 0
-135 -255 0
-135 -256 0
-136 -137 0
-136 -138 0
-136 -139 0
-136 -140 0
-136 -141 0
-136 -142 0
-136 -143 0
-136 -144 0
-136 -145 0
-136 -146 0
-136 -147 0
-136 -148 0
-136 -149 0
-136 -150 0
-136 -151 0
-136 -152 0
-136 -153 0
-136 -154 0
-136 -155 0
-136 -156 0
-136 -157 0
-136 -158 0
-136 -159 0
-136 -160 0
-136 -161 0
-136 -162 0
-136 -163 0
-136 -164 0
-136 -165 0
-136 -166 0
-136 -167 0
-136 -168 0
-136 -169 0
-136 -170 0
-136 -171 0
-136 -172 0
-136 -173 0
-136 -174 0
-136 -175 0
-136 -176 0
-136 -177 0
-136 -178 0
-136 -179 0
-136 -180 0
-136 -181 0
-136 -182 0
-136 -183 0
-136 -184 0
-136 -185 0
-136 -186 0
-136 -187 0
-136 -188 0
-136 -189 0
-136 -190 0
-136 -191 0
-136 -192 0
-136 -193 0
-136 -194 0
-136 -195 0
-136 -196 0
-136 -197 0
-136 -198 0
-136 -199 0
-136 -200 0
-136 -201 0
-136 -202 0
-136 -203 0
-136 -204 0
-136 -205 0
-136 -206 0
-136 -207 0
-136 -208 0
-136 -209 0
-136 -210 0
-136 -211 0
-136 -212 0
-136 -213 0
-136 -214 0
-136 -215 0
-136 -216 0
-136 -217 0
-136 -218 0
-136 -219 0
-136 -220 0
-136 -221 0
-136 -222 0
-136 -223 0
-136 -224 0
-136 -225 0
-136 -226 0
-136 -227 0
-136 -228 0
-136 -229 0
-136 -230 0
-136 -231 0
-136 -232 0
-136 -233 0
-136 -234 0
-136 -235 0
-136 -236 0
-136 -237 0
-136 -238 0
-136 -239 0
-136 -240 0
-136 -241 0
-136 -242 0
-136 -243 0
-136 -244 0
-136 -245 0
-136 -246 0
-136 -247 0
-136 -248 0
-136 -249 0
-136 -250 0
-136 -251 0
-136 -252 0
-136 -253 0
-136 -254 0
-136 -255 0
-136 -256 0
-137 -138 0
-137 -139 0
-137 -140 0
-137 -141 0
-137 -142 0
-137 -143 0
-137 -144 0
-137 -145 0
-137 -146 0
-137 -147 0
-137 -148 0
-137 -149 0
-137 -150 0
-137 -151 0
-137 -152 0
-137 -153 0
-137 -154 0
-137 -155 0
-137 -156 0
-137 -157 0
-137 -158 0
-137 -159 0
-137 -160 0
-137 -161 0
-137 -162 0
-137 -163 0
-137 -164 0
-137 -165 0
-137 -166 0
-137 -167 0
-137 -168 0
-137 -169 0
-137 -170 0
-137 -171 0
-137 -172 0
-137 -173 0
-137 -174 0
-137 -175 0
-137 -176 0
-137 -177 0
-137 -178 0
-137 -179 0
-137 -180 0
-137 -181 0
-137 -182 0
-137 -183 0
-137 -184 0
-137 -185 0
-137 -186 0
-137 -187 0
-137 -188 0
-137 -189 0
-137 -190 0
-137 -191 0
-137 -192 0
-137 -193 0
-137 -194 0
-137 -195 0
-137 -196 0
-137 -197 0
-137 -198 0
-137 -199 0
-137 -200 0
-137 -201 0
-137 -202 0
-137 -203 0
-137 -204 0
-137 -205 0
-137 -206 0
-137 -207 0
-137 -208 0
-137 -209 0
-137 -210 0
-137 -211 0
-137 -212 0
-137 -213 0
-137 -214 0
-137 -215 0
-137 -216 0
-137 -217 0
-137 -218 0
-137 -219 0
-137 -220 0
-137 -221 0
-137 -222 0
-137 -223 0
-137 -224 0
-137 -225 0
-137 -226 0
-137 -227 0
-137 -228 0
-137 -229 0
-137 -230 0
-137 -231 0
-137 -232 0
-137 -233 0
-137 -234 0
-137 -235 0
-137 -236 0
-137 -237 0
-137 -238 0
-137 -239 0
-137 -240 0
-137 -241 0
-137 -242 0
-137 -243 0
-137 -244 0
-137 -245 0
-137 -246 0
-137 -247 0
-137 -248 0
-137 -249 0
-137 -250 0
-137 -251 0
-137 -252 0
-137 -253 0
-137 -254 0
-137 -255 0
-137 -256 0
-138 -139 0
-138 -140 0
-138 -141 0
-138 -142 0
-138 -143 0
-138 -144 0
-138 -145 0
-138 -146 0
-138 -147 0
-138 -148 0
-138 -149 0
-138 -150 0
-138 -151 0
-138 -152 0
-138 -153 0
-138 -154 0
-138 -155 0
-138 -156 0
-138 -157 0
-138 -158 0
-138 -159 0
-138 -160 0
-138 -161 0
-138 -162 0
-138 -163 0
-138 -164 0
-138 -165 0
-138 -166 0
-138 -167 0
-138 -168 0
-138 -169 0
-138 -170 0
-138 -171 0
-138 -172 0
-138 -173 0
-138 -174 0
-138 -175 0
-138 -176 0
-138 -177 0
-138 -178 0
-138 -179 0
-138 -180 0
-138 -181 0
-138 -182 0
-138 -183 0
-138 -184 0
-138 -185 0
-138 -186 0
-138 -187 0
-138 -188 0
-138 -189 0
-138 -190 0
-138 -191 0
-138 -192 0
-138 -193 0
-138 -194 0
-138 -195 0
-138 -196 0
-138 -197 0
-138 -198 0
-138 -199 0
-138 -200 0
-138 -201 0
-138 -202 0
-138 -203 0
-138 -204 0
-138 -205 0
-138 -206 0
-138 -207 0
-138 -208 0
-138 -209 0
-138 -210 0
-138 -211 0
-138 -212 0
-138 -213 0
-138 -214 0
-138 -215 0
-138 -216 0
-138 -217 0
-138 -218 0
-138 -219 0
-138 -220 0
-138 -221 0
-138 -222 0
-138 -223 0
-138 -224 0
-138 -225 0
-138 -226 0
-138 -227 0
-138 -228 0
-138 -229 0
-138 -230 0
-138 -231 0
-138 -232 0
-138 -233 0
-138 -234 0
-138 -235 0
-138 -236 0
-138 -237 0
-138 -238 0
-138 -239 0
-138 -240 0
-138 -241 0
-138 -242 0
-138 -243 0
-138 -244 0
-138 -245 0
-138 -246 0
-138 -247 0
-138 -248 0
-138 -249 0
-138 -250 0
-138 -251 0
-138 -252 0
-138 -253 0
-138 -254 0
-138 -255 0
-138 -256 0
-139 -140 0
-139 -141 0
-139 -142 0
-139 -143 0
-139 -144 0
-139 -145 0
-139 -146 0
-139 -147 0
-139 -148 0
-139 -149 0
-139 -150 0
-139 -151 0
-139 -152 0
-139 -153 0
-139 -154 0
-139 -155 0
-139 -156 0
-139 -157 0
-139 -158 0
-139 -159 0
-139 -160 0
-139 -161 0
-139 -162 0
-139 -163 0
-139 -164 0
-139 -165 0
-139 -166 0
-139 -167 0
-139 -168 0
-139 -169 0
-139 -170 0
-139 -171 0
-139 -172 0
-139 -173 0
-139 -174 0
-139 -175 0
-139 -176 0
-139 -177 0
-139 -178 0
-139 -179 0
-139 -180 0
-139 -181 0
-139 -182 0
-139 -183 0
-139 -184 0
-139 -185 0
-139 -186 0
-139 -187 0
-139 -188 0
-139 -189 0
-139 -190 0
-139 -191 0
-139 -192 0
-139 -193 0
-139 -194 0
-139 -195 0
-139 -196 0
-139 -197 0
-139 -198 0
-139 -199 0
-139 -200 0
-139 -201 0
-139 -202 0
-139 -203 0
-139 -204 0
-139 -205 0
-139 -206 0
-139 -207 0
-139 -208 0
-139 -209 0
-139 -210 0
-139 -211 0
-139 -212 0
-139 -213 0
-139 -214 0
-139 -215 0
-139 -216 0
-139 -217 0
-139 -218 0
-139 -219 0
-139 -220 0
-139 -221 0
-139 -222 0
-139 -223 0
-139 -224 0
-139 -225 0
-139 -226 0
-139 -227 0
-139 -228 0
-139 -229 0
-139 -230 0
-139 -231 0
-139 -232 0
-139 -233 0
-139 -234 0
-139 -235 0
-139 -236 0
-139 -237 0
-139 -238 0
-139 -239 0
-139 -240 0
-139 -241 0
-139 -242 0
-139 -243 0
-139 -244 0
-139 -245 0
-139 -246 0
-139 -247 0
-139 -248 0
-139 -249 0
-139 -250 0
-139 -251 0
-139 -252 0
-139 -253 0
-139 -254 0
-139 -255 0
-139 -256 0
-140 -141 0
-140 -142 0
-140 -143 0
-140 -144 0
-140 -145 0
-140 -146 0
-140 -147 0
-140 -148 0
-140 -149 0
-140 -150 0
-140 -151 0
-140 -152 0
-140 -153 0
-140 -154 0
-140 -155 0
-140 -156 0
-140 -157 0
-140 -158 0
-140 -159 0
-140 -160 0
-140 -161 0
-140 -162 0
-140 -163 0
-140 -164 0
-140 -165 0
-140 -166 0
-140 -167 0
-140 -168 0
-140 -169 0
-140 -170 0
-140 -171 0
-140 -172 0
-140 -173 0
-140 -174 0
-140 -175 0
-140 -176 0
-140 -177 0
-140 -178 0
-140 -179 0
-140 -180 0
-140 -181 0
-140 -182 0
-140 -183 0
-140 -184 0
-140 -185 0
-140 -186 0
-140 -187 0
-140 -188 0
-140 -189 0
-140 -190 0
-140 -191 0
-140 -192 0
-140 -193 0
-140 -194 0
-140 -195 0
-140 -196 0
-140 -197 0
-140 -198 0
-140 -199 0
-140 -200 0
-140 -201 0
-140 -202 0
-140 -203 0
-140 -204 0
-140 -205 0
-140 -206 0
-140 -207 0
-140 -208 0
-140 -209 0
-140 -210 0
-140 -211 0
-140 -212 0
-140 -213 0
-140 -214 0
-140 -215 0
-140 -216 0
-140 -217 0
-140 -218 0
-140 -219 0
-140 -220 0
-140 -221 0
-140 -222 0
-140 -223 0
-140 -224 0
-140 -225 0
-140 -226 0
-140 -227 0
-140 -228 0
-140 -229 0
-140 -230 0
-140 -231 0
-140 -232 0
-140 -233 0
-140 -234 0
-140 -235 0
-140 -236 0
-140 -237 0
-140 -238 0
-140 -239 0
-140 -240 0
-140 -241 0
-140 -242 0
-140 -243 0
-140 -244 0
-140 -245 0
-140 -246 0
-140 -247 0
-140 -248 0
-140 -249 0
-140 -250 0
-140 -251 0
-140 -252 0
-140 -253 0
-140 -254 0
-140 -255 0
-140 -256 0
-141 -142 0
-141 -143 0
-141 -144 0
-141 -145 0
-141 -146 0
-141 -147 0
-141 -148 0
-141 -149 0
-141 -150 0
-141 -151 0
-141 -152 0
-141 -153 0
-141 -154 0
-141 -155 0
-141 -156 0
-141 -157 0
-141 -158 0
-141 -159 0
-141 -160 0
-141 -161 0
-141 -162 0
-141 -163 0
-141 -164 0
-141 -165 0
-141 -166 0
-141 -167 0
-141 -168 0
-141 -169 0
-141 -170 0
-141 -171 0
-141 -172 0
-141 -173 0
-141 -174 0
-141 -175 0
-141 -176 0
-141 -177 0
-141 -178 0
-141 -179 0
-141 -180 0
-141 -181 0
-141 -182 0
-141 -183 0
-141 -184 0
-141 -185 0
-141 -186 0
-141 -187 0
-141 -188 0
-141 -189 0
-141 -190 0
-141 -191 0
-141 -192 0
-141 -193 0
-141 -194 0
-141 -195 0
-141 -196 0
-141 -197 0
-141 -198 0
-141 -199 0
-141 -200 0
-141 -201 0
-141 -202 0
-141 -203 0
-141 -204 0
-141 -205 0
-141 -206 0
-141 -207 0
-141 -208 0
-141 -209 0
-141 -210 0
-141 -211 0
-141 -212 0
-141 -213 0
-141 -214 0
-141 -215 0
-141 -216 0
-141 -217 0
-141 -218 0
-141 -219 0
-141 -220 0
-141 -221 0
-141 -222 0
-141 -223 0
-141 -224 0
-141 -225 0
-141 -226 0
-141 -227 0
-141 -228 0
-141 -229 0
-141 -230 0
-141 -231 0
-141 -232 0
-141 -233 0
-141 -234 0
-141 -235 0
-141 -236 0
-141 -237 0
-141 -238 0
-141 -239 0
-141 -240 0
-141 -241 0
-141 -242 0
-141 -243 0
-141 -244 0
-141 -245 0
-141 -246 0
-141 -247 0
-141 -248 0
-141 -249 0
-141 -250 0
-141 -251 0
-141 -252 0
-141 -253 0
-141 -254 0
-141 -255 0
-141 -256 0
-142 -143 0
-142 -144 0
-142 -145 0
-142 -146 0
-142 -147 0
-142 -148 0
-142 -149 0
-142 -150 0
-142 -151 0
-142 -152 0
-142 -153 0
-142 -154 0
-142 -155 0
-142 -156 0
-142 -157 0
-142 -158 0
-142 -159 0
-142 -160 0
-142 -161 0
-142 -162 0
-142 -163 0
-142 -164 0
-142 -165 0
-142 -166 0
-142 -167 0
-142 -168 0
-142 -169 0
-142 -170 0
-142 -171 0
-142 -172 0
-142 -173 0
-142 -174 0
-142 -175 0
-142 -176 0
-142 -177 0
-142 -178 0
-142 -179 0
-142 -180 0
-142 -181 0
-142 -182 0
-142 -183 0
-142 -184 0
-142 -185 0
-142 -186 0
-142 -187 0
-142 -188 0
-142 -189 0
-142 -190 0
-142 -191 0
-142 -192 0
-142 -193 0
-142 -194 0
-142 -195 0
-142 -196 0
-142 -197 0
-142 -198 0
-142 -199 0
-142 -200 0
-142 -201 0
-142 -202 0
-142 -203 0
-142 -204 0
-142 -205 0
-142 -206 0
-142 -207 0
-142 -208 0
-142 -209 0
-142 -210 0
-142 -211 0
-142 -212 0
-142 -213 0
-142 -214 0
-142 -215 0
-142 -216 0
-142 -217 0
-142 -218 0
-142 -219 0
-142 -220 0
-142 -221 0
-142 -222 0
-142 -223 0
-142 -224 0
-142 -225 0
-142 -226 0
-142 -227 0
-142 -228 0
-142 -229 0
-142 -230 0
-142 -231 0
-142 -232 0
-142 -233 0
-142 -234 0
-142 -235 0
-142 -236 0
-142 -237 0
-142 -238 0
-142 -239 0
-142 -240 0
-142 -241 0
-142 -242 0
-142 -243 0
-142 -244 0
-142 -245 0
-142 -246 0
-142 -247 0
-142 -248 0
-142 -249 0
-142 -250 0
-142 -251 0
-142 -252 0
-142 -253 0
-142 -254 0
-142 -255 0
-142 -256 0
-143 -144 0
-143 -145 0
-143 -146 0
-143 -147 0
-143 -148 0
-143 -149 0
-143 -150 0
-143 -151 0
-143 -152 0
-143 -153 0
-143 -154 0
-143 -155 0
-143 -156 0
-143 -157 0
-143 -158 0
-143 -159 0
-143 -160 0
-143 -161 0
-143 -162 0
-143 -163 0
-143 -164 0
-143 -165 0
-143 -166 0
-143 -167 0
-143 -168 0
-143 -169 0
-143 -170 0
-143 -171 0
-143 -172 0
-143 -173 0
-143 -174 0
-143 -175 0
-143 -176 0
-143 -177 0
-143 -178 0
-143 -179 0
-143 -180 0
-143 -181 0
-143 -182 0
-143 -183 0
-143 -184 0
-143 -185 0
-143 -186 0
-143 -187 0
-143 -188 0
-143 -189 0
-143 -190 0
-143 -191 0
-143 -192 0
-143 -193 0
-143 -194 0
-143 -195 0
-143 -196 0
-143 -197 0
-143 -198 0
-143 -199 0
-143 -200 0
-143 -201 0
-143 -202 0
-143 -203 0
-143 -204 0
-143 -205 0
-143 -206 0
-143 -207 0
-143 -208 0
-143 -209 0
-143 -210 0
-143 -211 0
-143 -212 0
-143 -213 0
-143 -214 0
-143 -215 0
-143 -216 0
-143 -217 0
-143 -218 0
-143 -219 0
-143 -220 0
-143 -221 0
-143 -222 0
-143 -223 0
-143 -224 0
-143 -225 0
-143 -226 0
-143 -227 0
-143 -228 0
-143 -229 0
-143 -230 0
-143 -231 0
-143 -232 0
-143 -233 0
-143 -234 0
-143 -235 0
-143 -236 0
-143 -237 0
-143 -238 0
-143 -239 0
-143 -240 0
-143 -241 0
-143 -242 0
-143 -243 0
-143 -244 0
-143 -245 0
-143 -246 0
-143 -247 0
-143 -248 0
-143 -249 0
-143 -250 0
-143 -251 0
-143 -252 0
-143 -253 0
-143 -254 0
-143 -255 0
-143 -256 0
-144 -145 0
-144 -146 0
-144 -147 0
-144 -148 0
-144 -149 0
-144 -150 0
-144 -151 0
-144 -152 0
-144 -153 0
-144 -154 0
-144 -155 0
-144 -156 0
-144 -157 0
-144 -158 0
-144 -159 0
-144 -160 0
-144 -161 0
-144 -162 0
-144 -163 0
-144 -164 0
-144 -165 0
-144 -166 0
-144 -167 0
-144 -168 0
-144 -169 0
-144 -170 0
-144 -171 0
-144 -172 0
-144 -173 0
-144 -174 0
-144 -175 0
-144 -176 0
-144 -177 0
-144 -178 0
-144 -179 0
-144 -180 0
-144 -181 0
-144 -182 0
-144 -183 0
-144 -184 0
-144 -185 0
-144 -186 0
-144 -187 0
-144 -188 0
-144 -189 0
-144 -190 0
-144 -191 0
-144 -192 0
-144 -193 0
-144 -194 0
-144 -195 0
-144 -196 0
-144 -197 0
-144 -198 0
-144 -199 0
-144 -200 0
-144 -201 0
-144 -202 0
-144 -203 0
-144 -204 0
-144 -205 0
-144 -206 0
-144 -207 0
-144 -208 0
-144 -209 0
-144 -210 0
-144 -211 0
-144 -212 0
-144 -213 0
-144 -214 0
-144 -215 0
-144 -216 0
-144 -217 0
-144 -218 0
-144 -219 0
-144 -220 0
-144 -221 0
-144 -222 0
-144 -223 0
-144 -224 0
-144 -225 0
-144 -226 0
-144 -227 0
-144 -228 0
-144 -229 0
-144 -230 0
-144 -231 0
-144 -232 0
-144 -233 0
-144 -234 0
-144 -235 0
-144 -236 0
-144 -237 0
-144 -238 0
-144 -239 0
-144 -240 0
-144 -241 0
-144 -242 0
-144 -243 0
-144 -244 0
-144 -245 0
-144 -246 0
-144 -247 0
-144 -248 0
-144 -249 0
-144 -250 0
-144 -251 0
-144 -252 0
-144 -253 0
-144 -254 0
-144 -255 0
-144 -256 0
-145 -146 0
-145 -147 0
-145 -148 0
-145 -149 0
-145 -150 0
-145 -151 0
-145 -152 0
-145 -153 0
-145 -154 0
-145 -155 0
-145 -156 0
-145 -157 0
-145 -158 0
-145 -159 0
-145 -160 0
-145 -161 0
-145 -162 0
-145 -163 0
-145 -164 0
-145 -165 0
-145 -166 0
-145 -167 0
-145 -168 0
-145 -169 0
-145 -170 0
-145 -171 0
-145 -172 0
-145 -173 0
-145 -174 0
-145 -175 0
-145 -176 0
-145 -177 0
-145 -178 0
-145 -179 0
-145 -180 0
-145 -181 0
-145 -182 0
-145 -183 0
-145 -184 0
-145 -185 0
-145 -186 0
-145 -187 0
-145 -188 0
-145 -189 0
-145 -190 0
-145 -191 0
-145 -192 0
-145 -193 0
-145 -194 0
-145 -195 0
-145 -196 0
-145 -197 0
-145 -198 0
-145 -199 0
-145 -200 0
-145 -201 0
-145 -202 0
-145 -203 0
-145 -204 0
-145 -205 0
-145 -206 0
-145 -207 0
-145 -208 0
-145 -209 0
-145 -210 0
-145 -211 0
-145 -212 0
-145 -213 0
-145 -214 0
-145 -215 0
-145 -216 0
-145 -217 0
-145 -218 0
-145 -219 0
-145 -220 0
-145 -221 0
-145 -222 0
-145 -223 0
-145 -224 0
-145 -225 0
-145 -226 0
-145 -227 0
-145 -228 0
-145 -229 0
-145 -230 0
-145 -231 0
-145 -232 0
-145 -233 0
-145 -234 0
-145 -235 0
-145 -236 0
-145 -237 0
-145 -238 0
-145 -239 0
-145 -240 0
-145 -241 0
-145 -242 0
-145 -243 0
-145 -244 0
-145 -245 0
-145 -246 0
-145 -247 0
-145 -248 0
-145 -249 0
-145 -250 0
-145 -251 0
-145 -252 0
-145 -253 0
-145 -254 0
-145 -255 0
-145 -256 0
-146 -147 0
-146 -148 0
-146 -149 0
-146 -150 0
-146 -151 0
-146 -152 0
-146 -153 0
-146 -154 0
-146 -155 0
-146 -156 0
-146 -157 0
-146 -158 0
-146 -159 0
-146 -160 0
-146 -161 0
-146 -162 0
-146 -163 0
-146 -164 0
-146 -165 0
-146 -166 0
-146 -167 0
-146 -168 0
-146 -169 0
-146 -170 0
-146 -171 0
-146 -172 0
-146 -173 0
-146 -174 0
-146 -175 0
-146 -176 0
-146 -177 0
-146 -178 0
-146 -179 0
-146 -180 0
-146 -181 0
-146 -182 0
-146 -183 0
-146 -184 0
-146 -185 0
-146 -186 0
-146 -187 0
-146 -188 0
-146 -189 0
-146 -190 0
-146 -191 0
-146 -192 0
-146 -193 0
-146 -194 0
-146 -195 0
-146 -196 0
-146 -197 0
-146 -198 0
-146 -199 0
-146 -200 0
-146 -201 0
-146 -202 0
-146 -203 0
-146 -204 0
-146 -205 0
-146 -206 0
-146 -207 0
-146 -208 0
-146 -209 0
-146 -210 0
-146 -211 0
-146 -212 0
-146 -213 0
-146 -214 0
-146 -215 0
-146 -216 0
-146 -217 0
-146 -218 0
-146 -219 0
-146 -220 0
-146 -221 0
-146 -222 0
-146 -223 0
-146 -224 0
-146 -225 0
-146 -226 0
-146 -227 0
-146 -228 0
-146 -229 0
-146 -230 0
-146 -231 0
-146 -232 0
-146 -233 0
-146 -234 0
-146 -235 0
-146 -236 0
-146 -237 0
-146 -238 0
-146 -239 0
-146 -240 0
-146 -241 0
-146 -242 0
-146 -243 0
-146 -244 0
-146 -245 0
-146 -246 0
-146 -247 0
-146 -248 0
-146 -249 0
-146 -250 0
-146 -251 0
-146 -252 0
-146 -253 0
-146 -254 0
-146 -255 0
-146 -256 0
-147 -148 0
-147 -149 0
-147 -150 0
-147 -151 0
-147 -152 0
-147 -153 0
-147 -154 0
-147 -155 0
-147 -156 0
-147 -157 0
-147 -158 0
-147 -159 0
-147 -160 0
-147 -161 0
-147 -162 0
-147 -163 0
-147 -164 0
-147 -165 0
-147 -166 0
-147 -167 0
-147 -168 0
-147 -169 0
-147 -170 0
-147 -171 0
-147 -172 0
-147 -173 0
-147 -174 0
-147 -175 0
-147 -176 0
-147 -177 0
-147 -178 0
-147 -179 0
-147 -180 0
-147 -181 0
-147 -182 0
-147 -183 0
-147 -184 0
-147 -185 0
-147 -186 0
-147 -187 0
-147 -188 0
-147 -189 0
-147 -190 0
-147 -191 0
-147 -192 0
-147 -193 0
-147 -194 0
-147 -195 0
-147 -196 0
-147 -197 0
-147 -198 0
-147 -199 0
-147 -200 0
-147 -201 0
-147 -202 0
-147 -203 0
-147 -204 0
-147 -205 0
-147 -206 0
-147 -207 0
-147 -208 0
-147 -209 0
-147 -210 0
-147 -211 0
-147 -212 0
-147 -213 0
-147 -214 0
-147 -215 0
-147 -216 0
-147 -217 0
-147 -218 0
-147 -219 0
-147 -220 0
-147 -221 0
-147 -222 0
-147 -223 0
-147 -224 0
-147 -225 0
-147 -226 0
-147 -227 0
-147 -228 0
-147 -229 0
-147 -230 0
-147 -231 0
-147 -232 0
-147 -233 0
-147 -234 0
-147 -235 0
-147 -236 0
-147 -237 0
-147 -238 0
-147 -239 0
-147 -240 0
-147 -241 0
-147 -242 0
-147 -243 0
-147 -244 0
-147 -245 0
-147 -246 0
-147 -247 0
-147 -248 0
-147 -249 0
-147 -250 0
-147 -251 0
-147 -252 0
-147 -253 0
-147 -254 0
-147 -255 0
-147 -256 0
-148 -149 0
-148 -150 0
-148 -151 0
-148 -152 0
-148 -153 0
-148 -154 0
-148 -155 0
-148 -156 0
-148 -157 0
-148 -158 0
-148 -159 0
-148 -160 0
-148 -161 0
-148 -162 0
-148 -163 0
-148 -164 0
-148 -165 0
-148 -166 0
-148 -167 0
-148 -168 0
-148 -169 0
-148 -170 0
-148 -171 0
-148 -172 0
-148 -173 0
-148 -174 0
-148 -175 0
-148 -176 0
-148 -177 0
-148 -178 0
-148 -179 0
-148 -180 0
-148 -181 0
-148 -182 0
-148 -183 0
-148 -184 0
-148 -185 0
-148 -186 0
-148 -187 0
-148 -188 0
-148 -189 0
-148 -190 0
-148 -191 0
-148 -192 0
-148 -193 0
-148 -194 0
-148 -195 0
-148 -196 0
-148 -197 0
-148 -198 0
-148 -199 0
-148 -200 0
-148 -201 0
-148 -202 0
-148 -203 0
-148 -204 0
-148 -205 0
-148 -206 0
-148 -207 0
-148 -208 0
-148 -209 0
-148 -210 0
-148 -211 0
-148 -212 0
-148 -213 0
-148 -214 0
-148 -215 0
-148 -216 0
-148 -217 0
-148 -218 0
-148 -219 0
-148 -220 0
-148 -221 0
-148 -222 0
-148 -223 0
-148 -224 0
-148 -225 0
-148 -226 0
-148 -227 0
-148 -228 0
-148 -229 0
-148 -230 0
-148 -231 0
-148 -232 0
-148 -233 0
-148 -234 0
-148 -235 0
-148 -236 0
-148 -237 0
-148 -238 0
-148 -239 0
-148 -240 0
-148 -241 0
-148 -242 0
-148 -243 0
-148 -244 0
-148 -245 0
-148 -246 0
-148 -247 0
-148 -248 0
-148 -249 0
-148 -250 0
-148 -251 0
-148 -252 0
-148 -253 0
-148 -254 0
-148 -255 0
-148 -256 0
-149 -150 0
-149 -151 0
-149 -152 0
-149 -153 0
-149 -154 0
-149 -155 0
-149 -156 0
-149 -157 0
-149 -158 0
-149 -159 0
-149 -160 0
-149 -161 0
-149 -162 0
-149 -163 0
-149 -164 0
-149 -165 0
-149 -166 0
-149 -167 0
-149 -168 0
-149 -169 0
-149 -170 0
-149 -171 0
-149 -172 0
-149 -173 0
-149 -174 0
-149 -175 0
-149 -176 0
-149 -177 0
-149 -178 0
-149 -179 0
-149 -180 0
-149 -181 0
-149 -182 0
-149 -183 0
-149 -184 0
-149 -185 0
-149 -186 0
-149 -187 0
-149 -188 0
-149 -189 0
-149 -190 0
-149 -191 0
-149 -192 0
-149 -193 0
-149 -194 0
-149 -195 0
-149 -196 0
-149 -197 0
-149 -198 0
-149 -199 0
-149 -200 0
-149 -201 0
-149 -202 0
-149 -203 0
-149 -204 0
-149 -205 0
-149 -206 0
-149 -207 0
-149 -208 0
-149 -209 0
-149 -210 0
-149 -211 0
-149 -212 0
-149 -213 0
-149 -214 0
-149 -215 0
-149 -216 0
-149 -217 0
-149 -218 0
-149 -219 0
-149 -220 0
-149 -221 0
-149 -222 0
-149 -223 0
-149 -224 0
-149 -225 0
-149 -226 0
-149 -227 0
-149 -228 0
-149 -229 0
-149 -230 0
-149 -231 0
-149 -232 0
-149 -233 0
-149 -234 0
-149 -235 0
-149 -236 0
-149 -237 0
-149 -238 0
-149 -239 0
-149 -240 0
-149 -241 0
-149 -242 0
-149 -243 0
-149 -244 0
-149 -245 0
-149 -246 0
-149 -247 0
-149 -248 0
-149 -249 0
-149 -250 0
-149 -251 0
-149 -252 0
-149 -253 0
-149 -254 0
-149 -255 0
-149 -256 0
-150 -151 0
-150 -152 0
-150 -153 0
-150 -154 0
-150 -155 0
-150 -156 0
-150 -157 0
-150 -158 0
-150 -159 0
-150 -160 0
-150 -161 0
-150 -162 0
-150 -163 0
-150 -164 0
-150 -165 0
-150 -166 0
-150 -167 0
-150 -168 0
-150 -169 0
-150 -170 0
-150 -171 0
-150 -172 0
-150 -173 0
-150 -174 0
-150 -175 0
-150 -176 0
-150 -177 0
-150 -178 0
-150 -179 0
-150 -180 0
-150 -181 0
-150 -182 0
-150 -183 0
-150 -184 0
-150 -185 0
-150 -186 0
-150 -187 0
-150 -188 0
-150 -189 0
-150 -190 0
-150 -191 0
-150 -192 0
-150 -193 0
-150 -194 0
-150 -195 0
-150 -196 0
-150 -197 0
-150 -198 0
-150 -199 0
-150 -200 0
-150 -201 0
-150 -202 0
-150 -203 0
-150 -204 0
-150 -205 0
-150 -206 0
-150 -207 0
-150 -208 0
-150 -209 0
-150 -210 0
-150 -211 0
-150 -212 0
-150 -213 0
-150 -214 0
-150 -215 0
-150 -216 0
-150 -217 0
-150 -218 0
-150 -219 0
-150 -220 0
-150 -221 0
-150 -222 0
-150 -223 0
-150 -224 0
-150 -225 0
-150 -226 0
-150 -227 0
-150 -228 0
-150 -229 0
-150 -230 0
-150 -231 0
-150 -232 0
-150 -233 0
-150 -234 0
-150 -235 0
-150 -236 0
-150 -237 0
-150 -238 0
-150 -239 0
-150 -240 0
-150 -241 0
-150 -242 0
-150 -243 0
-150 -244 0
-150 -245 0
-150 -246 0
-150 -247 0
-150 -248 0
-150 -249 0
-150 -250 0
-150 -251 0
-150 -252 0
-150 -253 0
-150 -254 0
-150 -255 0
-150 -256 0
-151 -152 0
-151 -153 0
-151 -154 0
-151 -155 0
-151 -156 0
-151 -157 0
-151 -158 0
-151 -159 0
-151 -160 0
-151 -161 0
-151 -162 0
-151 -163 0
-151 -164 0
-151 -165 0
-151 -166 0
-151 -167 0
-151 -168 0
-151 -169 0
-151 -170 0
-151 -171 0
-151 -172 0
-151 -173 0
-151 -174 0
-151 -175 0
-151 -176 0
-151 -177 0
-151 -178 0
-151 -179 0
-151 -180 0
-151 -181 0
-151 -182 0
-151 -183 0
-151 -184 0
-151 -185 0
-151 -186 0
-151 -187 0
-151 -188 0
-151 -189 0
-151 -190 0
-151 -191 0
-151 -192 0
-151 -193 0
-151 -194 0
-151 -195 0
-151 -196 0
-151 -197 0
-151 -198 0
-151 -199 0
-151 -200 0
-151 -201 0
-151 -202 0
-151 -203 0
-151 -204 0
-151 -205 0
-151 -206 0
-151 -207 0
-151 -208 0
-151 -209 0
-151 -210 0
-151 -211 0
-151 -212 0
-151 -213 0
-151 -214 0
-151 -215 0
-151 -216 0
-151 -217 0
-151 -218 0
-151 -219 0
-151 -220 0
-151 -221 0
-151 -222 0
-151 -223 0
-151 -224 0
-151 -225 0
-151 -226 0
-151 -227 0
-151 -228 0
-151 -229 0
-151 -230 0
-151 -231 0
-151 -232 0
-151 -233 0
-151 -234 0
-151 -235 0
-151 -236 0
-151 -237 0
-151 -238 0
-151 -239 0
-151 -240 0
-151 -241 0
-151 -242 0
-151 -243 0
-151 -244 0
-151 -245 0
-151 -246 0
-151 -247 0
-151 -248 0
-151 -249 0
-151 -250 0
-151 -251 0
-151 -252 0
-151 -253 0
-151 -254 0
-151 -255 0
-151 -256 0
-152 -153 0
-152 -154 0
-152 -155 0
-152 -156 0
-152 -157 0
-152 -158 0
-152 -159 0
-152 -160 0
-152 -161 0
-152 -162 0
-152 -163 0
-152 -164 0
-152 -165 0
-152 -166 0
-152 -167 0
-152 -168 0
-152 -169 0
-152 -170 0
-152 -171 0
-152 -172 0
-152 -173 0
-152 -174 0
-152 -175 0
-152 -176 0
-152 -177 0
-152 -178 0
-152 -179 0
-152 -180 0
-152 -181 0
-152 -182 0
-152 -183 0
-152 -184 0
-152 -185 0
-152 -186 0
-152 -187 0
-152 -188 0
-152 -189 0
-152 -190 0
-152 -191 0
-152 -192 0
-152 -193 0
-152 -194 0
-152 -195 0
-152 -196 0
-152 -197 0
-152 -198 0
-152 -199 0
-152 -200 0
-152 -201 0
-152 -202 0
-152 -203 0
-152 -204 0
-152 -205 0
-152 -206 0
-152 -207 0
-152 -208 0
-152 -209 0
-152 -210 0
-152 -211 0
-152 -212 0
-152 -213 0
-152 -214 0
-152 -215 0
-152 -216 0
-152 -217 0
-152 -218 0
-152 -219 0
-152 -220 0
-152 -221 0
-152 -222 0
-152 -223 0
-152 -224 0
-152 -225 0
-152 -226 0
-152 -227 0
-152 -228 0
-152 -229 0
-152 -230 0
-152 -231 0
-152 -232 0
-152 -233 0
-152 -234 0
-152 -235 0
-152 -236 0
-152 -237 0
-152 -238 0
-152 -239 0
-152 -240 0
-152 -241 0
-152 -242 0
-152 -243 0
-152 -244 0
-152 -245 0
-152 -246 0
-152 -247 0
-152 -248 0
-152 -249 0
-152 -250 0
-152 -251 0
-152 -252 0
-152 -253 0
-152 -254 0
-152 -255 0
-152 -256 0
-153 -154 0
-153 -155 0
-153 -156 0
-153 -157 0
-153 -158 0
-153 -159 0
-153 -160 0
-153 -161 0
-153 -162 0
-153 -163 0
-153 -164 0
-153 -165 0
-153 -166 0
-153 -167 0
-153 -168 0
-153 -169 0
-153 -170 0
-153 -171 0
-153 -172 0
-153 -173 0
-153 -174 0
-153 -175 0
-153 -176 0
-153 -177 0
-153 -178 0
-153 -179 0
-153 -180 0
-153 -181 0
-153 -182 0
-153 -183 0
-153 -184 0
-153 -185 0
-153 -186 0
-153 -187 0
-153 -188 0
-153 -189 0
-153 -190 0
-153 -191 0
-153 -192 0
-153 -193 0
-153 -194 0
-153 -195 0
-153 -196 0
-153 -197 0
-153 -198 0
-153 -199 0
-153 -200 0
-153 -201 0
-153 -202 0
-153 -203 0
-153 -204 0
-153 -205 0
-153 -206 0
-153 -207 0
-153 -208 0
-153 -209 0
-153 -210 0
-153 -211 0
-153 -212 0
-153 -213 0
-153 -214 0
-153 -215 0
-153 -216 0
-153 -217 0
-153 -218 0
-153 -219 0
-153 -220 0
-153 -221 0
-153 -222 0
-153 -223 0
-153 -224 0
-153 -225 0
-153 -226 0
-153 -227 0
-153 -228 0
-153 -229 0
-153 -230 0
-153 -231 0
-153 -232 0
-153 -233 0
-153 -234 0
-153 -235 0
-153 -236 0
-153 -237 0
-153 -238 0
-153 -239 0
-153 -240 0
-153 -241 0
-153 -242 0
-153 -243 0
-153 -244 0
-153 -245 0
-153 -246 0
-153 -247 0
-153 -248 0
-153 -249 0
-153 -250 0
-153 -251 0
-153 -252 0
-153 -253 0
-153 -254 0
-153 -255 0
-153 -256 0
-154 -155 0
-154 -156 0
-154 -157 0
-154 -158 0
-154 -159 0
-154 -160 0
-154 -161 0
-154 -162 0
-154 -163 0
-154 -164 0
-154 -165 0
-154 -166 0
-154 -167 0
-154 -168 0
-154 -169 0
-154 -170 0
-154 -171 0
-154 -172 0
-154 -173 0
-154 -174 0
-154 -175 0
-154 -176 0
-154 -177 0
-154 -178 0
-154 -179 0
-154 -180 0
-154 -181 0
-154 -182 0
-154 -183 0
-154 -184 0
-154 -185 0
-154 -186 0
-154 -187 0
-154 -188 0
-154 -189 0
-154 -190 0
-154 -191 0
-154 -192 0
-154 -193 0
-154 -194 0
-154 -195 0
-154 -196 0
-154 -197 0
-154 -198 0
-154 -199 0
-154 -200 0
-154 -201 0
-154 -202 0
-154 -203 0
-154 -204 0
-154 -205 0
-154 -206 0
-154 -207 0
-154 -208 0
-154 -209 0
-154 -210 0
-154 -211 0
-154 -212 0
-154 -213 0
-154 -214 0
-154 -215 0
-154 -216 0
-154 -217 0
-154 -218 0
-154 -219 0
-154 -220 0
-154 -221 0
-154 -222 0
-154 -223 0
-154 -224 0
-154 -225 0
-154 -226 0
-154 -227 0
-154 -228 0
-154 -229 0
-154 -230 0
-154 -231 0
-154 -232 0
-154 -233 0
-154 -234 0
-154 -235 0
-154 -236 0
-154 -237 0
-154 -238 0
-154 -239 0
-154 -240 0
-154 -241 0
-154 -242 0
-154 -243 0
-154 -244 0
-154 -245 0
-154 -246 0
-154 -247 0
-154 -248 0
-154 -249 0
-154 -250 0
-154 -251 0
-154 -252 0
-154 -253 0
-154 -254 0
-154 -255 0
-154 -256 0
-155 -156 0
-155 -157 0
-155 -158 0
-155 -159 0
-155 -160 0
-155 -161 0
-155 -162 0
-155 -163 0
-155 -164 0
-155 -165 0
-155 -166 0
-155 -167 0
-155 -168 0
-155 -169 0
-155 -170 0
-155 -171 0
-155 -172 0
-155 -173 0
-155 -174 0
-155 -175 0
-155 -176 0
-155 -177 0
-155 -178 0
-155 -179 0
-155 -180 0
-155 -181 0
-155 -182 0
-155 -183 0
-155 -184 0
-155 -185 0
-155 -186 0
-155 -187 0
-155 -188 0
-155 -189 0
-155 -190 0
-155 -191 0
-155 -192 0
-155 -193 0
-155 -194 0
-155 -195 0
-155 -196 0
-155 -197 0
-155 -198 0
-155 -199 0
-155 -200 0
-155 -201 0
-155 -202 0
-155 -203 0
-155 -204 0
-155 -205 0
-155 -206 0
-155 -207 0
-155 -208 0
-155 -209 0
-155 -210 0
-155 -211 0
-155 -212 0
-155 -213 0
-155 -214 0
-155 -215 0
-155 -216 0
-155 -217 0
-155 -218 0
-155 -219 0
-155 -220 0
-155 -221 0
-155 -222 0
-155 -223 0
-155 -224 0
-155 -225 0
-155 -226 0
-155 -227 0
-155 -228 0
-155 -229 0
-155 -230 0
-155 -231 0
-155 -232 0
-155 -233 0
-155 -234 0
-155 -235 0
-155 -236 0
-155 -237 0
-155 -238 0
-155 -239 0
-155 -240 0
-155 -241 0
-155 -242 0
-155 -243 0
-155 -244 0
-155 -245 0
-155 -246 0
-155 -247 0
-155 -248 0
-155 -249 0
-155 -250 0
-155 -251 0
-155 -252 0
-155 -253 0
-155 -254 0
-155 -255 0
-155 -256 0
-156 -157 0
-156 -158 0
-156 -159 0
-156 -160 0
-156 -161 0
-156 -162 0
-156 -163 0
-156 -164 0
-156 -165 0
-156 -166 0
-156 -167 0
-156 -168 0
-156 -169 0
-156 -170 0
-156 -171 0
-156 -172 0
-156 -173 0
-156 -174 0
-156 -175 0
-156 -176 0
-156 -177 0
-156 -178 0
-156 -179 0
-156 -180 0
-156 -181 0
-156 -182 0
-156 -183 0
-156 -184 0
-156 -185 0
-156 -186 0
-156 -187 0
-156 -188 0
-156 -189 0
-156 -190 0
-156 -191 0
-156 -192 0
-156 -193 0
-156 -194 0
-156 -195 0
-156 -196 0
-156 -197 0
-156 -198 0
-156 -199 0
-156 -200 0
-156 -201 0
-156 -202 0
-156 -203 0
-156 -204 0
-156 -205 0
-156 -206 0
-156 -207 0
-156 -208 0
-156 -209 0
-156 -210 0
-156 -211 0
-156 -212 0
-156 -213 0
-156 -214 0
-156 -215 0
-156 -216 0
-156 -217 0
-156 -218 0
-156 -219 0
-156 -220 0
-156 -221 0
-156 -222 0
-156 -223 0
-156 -224 0
-156 -225 0
-156 -226 0
-156 -227 0
-156 -228 0
-156 -229 0
-156 -230 0
-156 -231 0
-156 -232 0
-156 -233 0
-156 -234 0
-156 -235 0
-156 -236 0
-156 -237 0
-156 -238 0
-156 -239 0
-156 -240 0
-156 -241 0
-156 -242 0
-156 -243 0
-156 -244 0
-156 -245 0
-156 -246 0
-156 -247 0
-156 -248 0
-156 -249 0
-156 -250 0
-156 -251 0
-156 -252 0
-156 -253 0
-156 -254 0
-156 -255 0
-156 -256 0
-157 -158 0
-157 -159 0
-157 -160 0
-157 -161 0
-157 -162 0
-157 -163 0
-157 -164 0
-157 -165 0
-157 -166 0
-157 -167 0
-157 -168 0
-157 -169 0
-157 -170 0
-157 -171 0
-157 -172 0
-157 -173 0
-157 -174 0
-157 -175 0
-157 -176 0
-157 -177 0
-157 -178 0
-157 -179 0
-157 -180 0
-157 -181 0
-157 -182 0
-157 -183 0
-157 -184 0
-157 -185 0
-157 -186 0
-157 -187 0
-157 -188 0
-157 -189 0
-157 -190 0
-157 -191 0
-157 -192 0
-157 -193 0
-157 -194 0
-157 -195 0
-157 -196 0
-157 -197 0
-157 -198 0
-157 -199 0
-157 -200 0
-157 -201 0
-157 -202 0
-157 -203 0
-157 -204 0
-157 -205 0
-157 -206 0
-157 -207 0
-157 -208 0
-157 -209 0
-157 -210 0
-157 -211 0
-157 -212 0
-157 -213 0
-157 -214 0
-157 -215 0
-157 -216 0
-157 -217 0
-157 -218 0
-157 -219 0
-157 -220 0
-157 -221 0
-157 -222 0
-157 -223 0
-157 -224 0
-157 -225 0
-157 -226 0
-157 -227 0
-157 -228 0
-157 -229 0
-157 -230 0
-157 -231 0
-157 -232 0
-157 -233 0
-157 -234 0
-157 -235 0
-157 -236 0
-157 -237 0
-157 -238 0
-157 -239 0
-157 -240 0
-157 -241 0
-157 -242 0
-157 -243 0
-157 -244 0
-157 -245 0
-157 -246 0
-157 -247 0
-157 -248 0
-157 -249 0
-157 -250 0
-157 -251 0
-157 -252 0
-157 -253 0
-157 -254 0
-157 -255 0
-157 -256 0
-158 -159 0
-158 -160 0
-158 -161 0
-158 -162 0
-158 -163 0
-158 -164 0
-158 -165 0
-158 -166 0
-158 -167 0
-158 -168 0
-158 -169 0
-158 -170 0
-158 -171 0
-158 -172 0
-158 -173 0
-158 -174 0
-158 -175 0
-158 -176 0
-158 -177 0
-158 -178 0
-158 -179 0
-158 -180 0
-158 -181 0
-158 -182 0
-158 -183 0
-158 -184 0
-158 -185 0
-158 -186 0
-158 -187 0
-158 -188 0
-158 -189 0
-158 -190 0
-158 -191 0
-158 -192 0
-158 -193 0
-158 -194 0
-158 -195 0
-158 -196 0
-158 -197 0
-158 -198 0
-158 -199 0
-158 -200 0
-158 -201 0
-158 -202 0
-158 -203 0
-158 -204 0
-158 -205 0
-158 -206 0
-158 -207 0
-158 -208 0
-158 -209 0
-158 -210 0
-158 -211 0
-158 -212 0
-158 -213 0
-158 -214 0
-158 -215 0
-158 -216 0
-158 -217 0
-158 -218 0
-158 -219 0
-158 -220 0
-158 -221 0
-158 -222 0
-158 -223 0
-158 -224 0
-158 -225 0
-158 -226 0
-158 -227 0
-158 -228 0
-158 -229 0
-158 -230 0
-158 -231 0
-158 -232 0
-158 -233 0
-158 -234 0
-158 -235 0
-158 -236 0
-158 -237 0
-158 -238 0
-158 -239 0
-158 -240 0
-158 -241 0
-158 -242 0
-158 -243 0
-158 -244 0
-158 -245 0
-158 -246 0
-158 -247 0
-158 -248 0
-158 -249 0
-158 -250 0
-158 -251 0
-158 -252 0
-158 -253 0
-158 -254 0
-158 -255 0
-158 -256 0
-159 -160 0
-159 -161 0
-159 -162 0
-159 -163 0
-159 -164 0
-159 -165 0
-159 -166 0
-159 -167 0
-159 -168 0
-159 -169 0
-159 -170 0
-159 -171 0
-159 -172 0
-159 -173 0
-159 -174 0
-159 -175 0
-159 -176 0
-159 -177 0
-159 -178 0
-159 -179 0
-159 -180 0
-159 -181 0
-159 -182 0
-159 -183 0
-159 -184 0
-159 -185 0
-159 -186 0
-159 -187 0
-159 -188 0
-159 -189 0
-159 -190 0
-159 -191 0
-159 -192 0
-159 -193 0
-159 -194 0
-159 -195 0
-159 -196 0
-159 -197 0
-159 -198 0
-159 -199 0
-159 -200 0
-159 -201 0
-159 -202 0
-159 -203 0
-159 -204 0
-159 -205 0
-159 -206 0
-159 -207 0
-159 -208 0
-159 -209 0
-159 -210 0
-159 -211 0
-159 -212 0
-159 -213 0
-159 -214 0
-159 -215 0
-159 -216 0
-159 -217 0
-159 -218 0
-159 -219 0
-159 -220 0
-159 -221 0
-159 -222 0
-159 -223 0
-159 -224 0
-159 -225 0
-159 -226 0
-159 -227 0
-159 -228 0
-159 -229 0
-159 -230 0
-159 -231 0
-159 -232 0
-159 -233 0
-159 -234 0
-159 -235 0
-159 -236 0
-159 -237 0
-159 -238 0
-159 -239 0
-159 -240 0
-159 -241 0
-159 -242 0
-159 -243 0
-159 -244 0
-159 -245 0
-159 -246 0
-159 -247 0
-159 -248 0
-159 -249 0
-159 -250 0
-159 -251 0
-159 -252 0
-159 -253 0
-159 -254 0
-159 -255 0
-159 -256 0
-160 -161 0
-160 -162 0
-160 -163 0
-160 -164 0
-160 -165 0
-160 -166 0
-160 -167 0
-160 -168 0
-160 -169 0
-160 -170 0
-160 -171 0
-160 -172 0
-160 -173 0
-160 -174 0
-160 -175 0
-160 -176 0
-160 -177 0
-160 -178 0
-160 -179 0
-160 -180 0
-160 -181 0
-160 -182 0
-160 -183 0
-160 -184 0
-160 -185 0
-160 -186 0
-160 -187 0
-160 -188 0
-160 -189 0
-160 -190 0
-160 -191 0
-160 -192 0
-160 -193 0
-160 -194 0
-160 -195 0
-160 -196 0
-160 -197 0
-160 -198 0
-160 -199 0
-160 -200 0
-160 -201 0
-160 -202 0
-160 -203 0
-160 -204 0
-160 -205 0
-160 -206 0
-160 -207 0
-160 -208 0
-160 -209 0
-160 -210 0
-160 -211 0
-160 -212 0
-160 -213 0
-160 -214 0
-160 -215 0
-160 -216 0
-160 -217 0
-160 -218 0
-160 -219 0
-160 -220 0
-160 -221 0
-160 -222 0
-160 -223 0
-160 -224 0
-160 -225 0
-160 -226 0
-160 -227 0
-160 -228 0
-160 -229 0
-160 -230 0
-160 -231 0
-160 -232 0
-160 -233 0
-160 -234 0
-160 -235 0
-160 -236 0
-160 -237 0
-160 -238 0
-160 -239 0
-160 -240 0
-160 -241 0
-160 -242 0
-160 -243 0
-160 -244 0
-160 -245 0
-160 -246 0
-160 -247 0
-160 -248 0
-160 -249 0
-160 -250 0
-160 -251 0
-160 -252 0
-160 -253 0
-160 -254 0
-160 -255 0
-160 -256 0
-161 -162 0
-161 -163 0
-161 -164 0
-161 -165 0
-161 -166 0
-161 -167 0
-161 -168 0
-161 -169 0
-161 -170 0
-161 -171 0
-161 -172 0
-161 -173 0
-161 -174 0
-161 -175 0
-161 -176 0
-161 -177 0
-161 -178 0
-161 -179 0
-161 -180 0
-161 -181 0
-161 -182 0
-161 -183 0
-161 -184 0
-161 -185 0
-161 -186 0
-161 -187 0
-161 -188 0
-161 -189 0
-161 -190 0
-161 -191 0
-161 -192 0
-161 -193 0
-161 -194 0
-161 -195 0
-161 -196 0
-161 -197 0
-161 -198 0
-161 -199 0
-161 -200 0
-161 -201 0
-161 -202 0
-161 -203 0
-161 -204 0
-161 -205 0
-161 -206 0
-161 -207 0
-161 -208 0
-161 -209 0
-161 -210 0
-161 -211 0
-161 -212 0
-161 -213 0
-161 -214 0
-161 -215 0
-161 -216 0
-161 -217 0
-161 -218 0
-161 -219 0
-161 -220 0
-161 -221 0
-161 -222 0
-161 -223 0
-161 -224 0
-161 -225 0
-161 -226 0
-161 -227 0
-161 -228 0
-161 -229 0
-161 -230 0
-161 -231 0
-161 -232 0
-161 -233 0
-161 -234 0
-161 -235 0
-161 -236 0
-161 -237 0
-161 -238 0
-161 -239 0
-161 -240 0
-161 -241 0
-161 -242 0
-161 -243 0
-161 -244 0
-161 -245 0
-161 -246 0
-161 -247 0
-161 -248 0
-161 -249 0
-161 -250 0
-161 -251 0
-161 -252 0
-161 -253 0
-161 -254 0
-161 -255 0
-161 -256 0
-162 -163 0
-162 -164 0
-162 -165 0
-162 -166 0
-162 -167 0
-162 -168 0
-162 -169 0
-162 -170 0
-162 -171 0
-162 -172 0
-162 -173 0
-162 -174 0
-162 -175 0
-162 -176 0
-162 -177 0
-162 -178 0
-162 -179 0
-162 -180 0
-162 -181 0
-162 -182 0
-162 -183 0
-162 -184 0
-162 -185 0
-162 -186 0
-162 -187 0
-162 -188 0
-162 -189 0
-162 -190 0
-162 -191 0
-162 -192 0
-162 -193 0
-162 -194 0
-162 -195 0
-162 -196 0
-162 -197 0
-162 -198 0
-162 -199 0
-162 -200 0
-162 -201 0
-162 -202 0
-162 -203 0
-162 -204 0
-162 -205 0
-162 -206 0
-162 -207 0
-162 -208 0
-162 -209 0
-162 -210 0
-162 -211 0
-162 -212 0
-162 -213 0
-162 -214 0
-162 -215 0
-162 -216 0
-162 -217 0
-162 -218 0
-162 -219 0
-162 -220 0
-162 -221 0
-162 -222 0
-162 -223 0
-162 -224 0
-162 -225 0
-162 -226 0
-162 -227 0
-162 -228 0
-162 -229 0
-162 -230 0
-162 -231 0
-162 -232 0
-162 -233 0
-162 -234 0
-162 -235 0
-162 -236 0
-162 -237 0
-162 -238 0
-162 -239 0
-162 -240 0
-162 -241 0
-162 -242 0
-162 -243 0
-162 -244 0
-162 -245 0
-162 -246 0
-162 -247 0
-162 -248 0
-162 -249 0
-162 -250 0
-162 -251 0
-162 -252 0
-162 -253 0
-162 -254 0
-162 -255 0
-162 -256 0
-163 -164 0
-163 -165 0
-163 -166 0
-163 -167 0
-163 -168 0
-163 -169 0
-163 -170 0
-163 -171 0
-163 -172 0
-163 -173 0
-163 -174 0
-163 -175 0
-163 -176 0
-163 -177 0
-163 -178 0
-163 -179 0
-163 -180 0
-163 -181 0
-163 -182 0
-163 -183 0
-163 -184 0
-163 -185 0
-163 -186 0
-163 -187 0
-163 -188 0
-163 -189 0
-163 -190 0
-163 -191 0
-163 -192 0
-163 -193 0
-163 -194 0
-163 -195 0
-163 -196 0
-163 -197 0
-163 -198 0
-163 -199 0
-163 -200 0
-163 -201 0
-163 -202 0
-163 -203 0
-163 -204 0
-163 -205 0
-163 -206 0
-163 -207 0
-163 -208 0
-163 -209 0
-163 -210 0
-163 -211 0
-163 -212 0
-163 -213 0
-163 -214 0
-163 -215 0
-163 -216 0
-163 -217 0
-163 -218 0
-163 -219 0
-163 -220 0
-163 -221 0
-163 -222 0
-163 -223 0
-163 -224 0
-163 -225 0
-163 -226 0
-163 -227 0
-163 -228 0
-163 -229 0
-163 -230 0
-163 -231 0
-163 -232 0
-163 -233 0
-163 -234 0
-163 -235 0
-163 -236 0
-163 -237 0
-163 -238 0
-163 -239 0
-163 -240 0
-163 -241 0
-163 -242 0
-163 -243 0
-163 -244 0
-163 -245 0
-163 -246 0
-163 -247 0
-163 -248 0
-163 -249 0
-163 -250 0
-163 -251 0
-163 -252 0
-163 -253 0
-163 -254 0
-163 -255 0
-163 -256 0
-164 -165 0
-164 -166 0
-164 -167 0
-164 -168 0
-164 -169 0
-164 -170 0
-164 -171 0
-164 -172 0
-164 -173 0
-164 -174 0
-164 -175 0
-164 -176 0
-164 -177 0
-164 -178 0
-164 -179 0
-164 -180 0
-164 -181 0
-164 -182 0
-164 -183 0
-164 -184 0
-164 -185 0
-164 -186 0
-164 -187 0
-164 -188 0
-164 -189 0
-164 -190 0
-164 -191 0
-164 -192 0
-164 -193 0
-164 -194 0
-164 -195 0
-164 -196 0
-164 -197 0
-164 -198 0
-164 -199 0
-164 -200 0
-164 -201 0
-164 -202 0
-164 -203 0
-164 -204 0
-164 -205 0
-164 -206 0
-164 -207 0
-164 -208 0
-164 -209 0
-164 -210 0
-164 -211 0
-164 -212 0
-164 -213 0
-164 -214 0
-164 -215 0
-164 -216 0
-164 -217 0
-164 -218 0
-164 -219 0
-164 -220 0
-164 -221 0
-164 -222 0
-164 -223 0
-164 -224 0
-164 -225 0
-164 -226 0
-164 -227 0
-164 -228 0
-164 -229 0
-164 -230 0
-164 -231 0
-164 -232 0
-164 -233 0
-164 -234 0
-164 -235 0
-164 -236 0
-164 -237 0
-164 -238 0
-164 -239 0
-164 -240 0
-164 -241 0
-164 -242 0
-164 -243 0
-164 -244 0
-164 -245 0
-164 -246 0
-164 -247 0
-164 -248 0
-164 -249 0
-164 -250 0
-164 -251 0
-164 -252 0
-164 -253 0
-164 -254 0
-164 -255 0
-164 -256 0
-165 -166 0
-165 -167 0
-165 -168 0
-165 -169 0
-165 -170 0
-165 -171 0
-165 -172 0
-165 -173 0
-165 -174 0
-165 -175 0
-165 -176 0
-165 -177 0
-165 -178 0
-165 -179 0
-165 -180 0
-165 -181 0
-165 -182 0
-165 -183 0
-165 -184 0
-165 -185 0
-165 -186 0
-165 -187 0
-165 -188 0
-165 -189 0
-165 -190 0
-165 -191 0
-165 -192 0
-165 -193 0
-165 -194 0
-165 -195 0
-165 -196 0
-165 -197 0
-165 -198 0
-165 -199 0
-165 -200 0
-165 -201 0
-165 -202 0
-165 -203 0
-165 -204 0
-165 -205 0
-165 -206 0
-165 -207 0
-165 -208 0
-165 -209 0
-165 -210 0
-165 -211 0
-165 -212 0
-165 -213 0
-165 -214 0
-165 -215 0
-165 -216 0
-165 -217 0
-165 -218 0
-165 -219 0
-165 -220 0
-165 -221 0
-165 -222 0
-165 -223 0
-165 -224 0
-165 -225 0
-165 -226 0
-165 -227 0
-165 -228 0
-165 -229 0
-165 -230 0
-165 -231 0
-165 -232 0
-165 -233 0
-165 -234 0
-165 -235 0
-165 -236 0
-165 -237 0
-165 -238 0
-165 -239 0
-165 -240 0
-165 -241 0
-165 -242 0
-165 -243 0
-165 -244 0
-165 -245 0
-165 -246 0
-165 -247 0
-165 -248 0
-165 -249 0
-165 -250 0
-165 -251 0
-165 -252 0
-165 -253 0
-165 -254 0
-165 -255 0
-165 -256 0
-166 -167 0
-166 -168 0
-166 -169 0
-166 -170 0
-166 -171 0
-166 -172 0
-166 -173 0
-166 -174 0
-166 -175 0
-166 -176 0
-166 -177 0
-166 -178 0
-166 -179 0
-166 -180 0
-166 -181 0
-166 -182 0
-166 -183 0
-166 -184 0
-166 -185 0
-166 -186 0
-166 -187 0
-166 -188 0
-166 -189 0
-166 -190 0
-166 -191 0
-166 -192 0
-166 -193 0
-166 -194 0
-166 -195 0
-166 -196 0
-166 -197 0
-166 -198 0
-166 -199 0
-166 -200 0
-166 -201 0
-166 -202 0
-166 -203 0
-166 -204 0
-166 -205 0
-166 -206 0
-166 -207 0
-166 -208 0
-166 -209 0
-166 -210 0
-166 -211 0
-166 -212 0
-166 -213 0
-166 -214 0
-166 -215 0
-166 -216 0
-166 -217 0
-166 -218 0
-166 -219 0
-166 -220 0
-166 -221 0
-166 -222 0
-166 -223 0
-166 -224 0
-166 -225 0
-166 -226 0
-166 -227 0
-166 -228 0
-166 -229 0
-166 -230 0
-166 -231 0
-166 -232 0
-166 -233 0
-166 -234 0
-166 -235 0
-166 -236 0
-166 -237 0
-166 -238 0
-166 -239 0
-166 -240 0
-166 -241 0
-166 -242 0
-166 -243 0
-166 -244 0
-166 -245 0
-166 -246 0
-166 -247 0
-166 -248 0
-166 -249 0
-166 -250 0
-166 -251 0
-166 -252 0
-166 -253 0
-166 -254 0
-166 -255 0
-166 -256 0
-167 -168 0
-167 -169 0
-167 -170 0
-167 -171 0
-167 -172 0
-167 -173 0
-167 -174 0
-167 -175 0
-167 -176 0
-167 -177 0
-167 -178 0
-167 -179 0
-167 -180 0
-167 -181 0
-167 -182 0
-167 -183 0
-167 -184 0
-167 -185 0
-167 -186 0
-167 -187 0
-167 -188 0
-167 -189 0
-167 -190 0
-167 -191 0
-167 -192 0
-167 -193 0
-167 -194 0
-167 -195 0
-167 -196 0
-167 -197 0
-167 -198 0
-167 -199 0
-167 -200 0
-167 -201 0
-167 -202 0
-167 -203 0
-167 -204 0
-167 -205 0
-167 -206 0
-167 -207 0
-167 -208 0
-167 -209 0
-167 -210 0
-167 -211 0
-167 -212 0
-167 -213 0
-167 -214 0
-167 -215 0
-167 -216 0
-167 -217 0
-167 -218 0
-167 -219 0
-167 -220 0
-167 -221 0
-167 -222 0
-167 -223 0
-167 -224 0
-167 -225 0
-167 -226 0
-167 -227 0
-167 -228 0
-167 -229 0
-167 -230 0
-167 -231 0
-167 -232 0
-167 -233 0
-167 -234 0
-167 -235 0
-167 -236 0
-167 -237 0
-167 -238 0
-167 -239 0
-167 -240 0
-167 -241 0
-167 -242 0
-167 -243 0
-167 -244 0
-167 -245 0
-167 -246 0
-167 -247 0
-167 -248 0
-167 -249 0
-167 -250 0
-167 -251 0
-167 -252 0
-167 -253 0
-167 -254 0
-167 -255 0
-167 -256 0
-168 -169 0
-168 -170 0
-168 -171 0
-168 -172 0
-168 -173 0
-168 -174 0
-168 -175 0
-168 -176 0
-168 -177 0
-168 -178 0
-168 -179 0
-168 -180 0
-168 -181 0
-168 -182 0
-168 -183 0
-168 -184 0
-168 -185 0
-168 -186 0
-168 -187 0
-168 -188 0
-168 -189 0
-168 -190 0
-168 -191 0
-168 -192 0
-168 -193 0
-168 -194 0
-168 -195 0
-168 -196 0
-168 -197 0
-168 -198 0
-168 -199 0
-168 -200 0
-168 -201 0
-168 -202 0
-168 -203 0
-168 -204 0
-168 -205 0
-168 -206 0
-168 -207 0
-168 -208 0
-168 -209 0
-168 -210 0
-168 -211 0
-168 -212 0
-168 -213 0
-168 -214 0
-168 -215 0
-168 -216 0
-168 -217 0
-168 -218 0
-168 -219 0
-168 -220 0
-168 -221 0
-168 -222 0
-168 -223 0
-168 -224 0
-168 -225 0
-168 -226 0
-168 -227 0
-168 -228 0
-168 -229 0
-168 -230 0
-168 -231 0
-168 -232 0
-168 -233 0
-168 -234 0
-168 -235 0
-168 -236 0
-168 -237 0
-168 -238 0
-168 -239 0
-168 -240 0
-168 -241 0
-168 -242 0
-168 -243 0
-168 -244 0
-168 -245 0
-168 -246 0
-168 -247 0
-168 -248 0
-168 -249 0
-168 -250 0
-168 -251 0
-168 -252 0
-168 -253 0
-168 -254 0
-168 -255 0
-168 -256 0
-169 -170 0
-169 -171 0
-169 -172 0
-169 -173 0
-169 -174 0
-169 -175 0
-169 -176 0
-169 -177 0
-169 -178 0
-169 -179 0
-169 -180 0
-169 -181 0
-169 -182 0
-169 -183 0
-169 -184 0
-169 -185 0
-169 -186 0
-169 -187 0
-169 -188 0
-169 -189 0
-169 -190 0
-169 -191 0
-169 -192 0
-169 -193 0
-169 -194 0
-169 -195 0
-169 -196 0
-169 -197 0
-169 -198 0
-169 -199 0
-169 -200 0
-169 -201 0
-169 -202 0
-169 -203 0
-169 -204 0
-169 -205 0
-169 -206 0
-169 -207 0
-169 -208 0
-169 -209 0
-169 -210 0
-169 -211 0
-169 -212 0
-169 -213 0
-169 -214 0
-169 -215 0
-169 -216 0
-169 -217 0
-169 -218 0
-169 -219 0
-169 -220 0
-169 -221 0
-169 -222 0
-169 -223 0
-169 -224 0
-169 -225 0
-169 -226 0
-169 -227 0
-169 -228 0
-169 -229 0
-169 -230 0
-169 -231 0
-169 -232 0
-169 -233 0
-169 -234 0
-169 -235 0
-169 -236 0
-169 -237 0
-169 -238 0
-169 -239 0
-169 -240 0
-169 -241 0
-169 -242 0
-169 -243 0
-169 -244 0
-169 -245 0
-169 -246 0
-169 -247 0
-169 -248 0
-169 -249 0
-169 -250 0
-169 -251 0
-169 -252 0
-169 -253 0
-169 -254 0
-169 -255 0
-169 -256 0
-170 -171 0
-170 -172 0
-170 -173 0
-170 -174 0
-170 -175 0
-170 -176 0
-170 -177 0
-170 -178 0
-170 -179 0
-170 -180 0
-170 -181 0
-170 -182 0
-170 -183 0
-170 -184 0
-170 -185 0
-170 -186 0
-170 -187 0
-170 -188 0
-170 -189 0
-170 -190 0
-170 -191 0
-170 -192 0
-170 -193 0
-170 -194 0
-170 -195 0
-170 -196 0
-170 -197 0
-170 -198 0
-170 -199 0
-170 -200 0
-170 -201 0
-170 -202 0
-170 -203 0
-170 -204 0
-170 -205 0
-170 -206 0
-170 -207 0
-170 -208 0
-170 -209 0
-170 -210 0
-170 -211 0
-170 -212 0
-170 -213 0
-170 -214 0
-170 -215 0
-170 -216 0
-170 -217 0
-170 -218 0
-170 -219 0
-170 -220 0
-170 -221 0
-170 -222 0
-170 -223 0
-170 -224 0
-170 -225 0
-170 -226 0
-170 -227 0
-170 -228 0
-170 -229 0
-170 -230 0
-170 -231 0
-170 -232 0
-170 -233 0
-170 -234 0
-170 -235 0
-170 -236 0
-170 -237 0
-170 -238 0
-170 -239 0
-170 -240 0
-170 -241 0
-170 -242 0
-170 -243 0
-170 -244 0
-170 -245 0
-170 -246 0
-170 -247 0
-170 -248 0
-170 -249 0
-170 -250 0
-170 -251 0
-170 -252 0
-170 -253 0
-170 -254 0
-170 -255 0
-170 -256 0
-171 -172 0
-171 -173 0
-171 -174 0
-171 -175 0
-171 -176 0
-171 -177 0
-171 -178 0
-171 -179 0
-171 -180 0
-171 -181 0
-171 -182 0
-171 -183 0
-171 -184 0
-171 -185 0
-171 -186 0
-171 -187 0
-171 -188 0
-171 -189 0
-171 -190 0
-171 -191 0
-171 -192 0
-171 -193 0
-171 -194 0
-171 -195 0
-171 -196 0
-171 -197 0
-171 -198 0
-171 -199 0
-171 -200 0
-171 -201 0
-171 -202 0
-171 -203 0
-171 -204 0
-171 -205 0
-171 -206 0
-171 -207 0
-171 -208 0
-171 -209 0
-171 -210 0
-171 -211 0
-171 -212 0
-171 -213 0
-171 -214 0
-171 -215 0
-171 -216 0
-171 -217 0
-171 -218 0
-171 -219 0
-171 -220 0
-171 -221 0
-171 -222 0
-171 -223 0
-171 -224 0
-171 -225 0
-171 -226 0
-171 -227 0
-171 -228 0
-171 -229 0
-171 -230 0
-171 -231 0
-171 -232 0
-171 -233 0
-171 -234 0
-171 -235 0
-171 -236 0
-171 -237 0
-171 -238 0
-171 -239 0
-171 -240 0
-171 -241 0
-171 -242 0
-171 -243 0
-171 -244 0
-171 -245 0
-171 -246 0
-171 -247 0
-171 -248 0
-171 -249 0
-171 -250 0
-171 -251 0
-171 -252 0
-171 -253 0
-171 -254 0
-171 -255 0
-171 -256 0
-172 -173 0
-172 -174 0
-172 -175 0
-172 -176 0
-172 -177 0
-172 -178 0
-172 -179 0
-172 -180 0
-172 -181 0
-172 -182 0
-172 -183 0
-172 -184 0
-172 -185 0
-172 -186 0
-172 -187 0
-172 -188 0
-172 -189 0
-172 -190 0
-172 -191 0
-172 -192 0
-172 -193 0
-172 -194 0
-172 -195 0
-172 -196 0
-172 -197 0
-172 -198 0
-172 -199 0
-172 -200 0
-172 -201 0
-172 -202 0
-172 -203 0
-172 -204 0
-172 -205 0
-172 -206 0
-172 -207 0
-172 -208 0
-172 -209 0
-172 -210 0
-172 -211 0
-172 -212 0
-172 -213 0
-172 -214 0
-172 -215 0
-172 -216 0
-172 -217 0
-172 -218 0
-172 -219 0
-172 -220 0
-172 -221 0
-172 -222 0
-172 -223 0
-172 -224 0
-172 -225 0
-172 -226 0
-172 -227 0
-172 -228 0
-172 -229 0
-172 -230 0
-172 -231 0
-172 -232 0
-172 -233 0
-172 -234 0
-172 -235 0
-172 -236 0
-172 -237 0
-172 -238 0
-172 -239 0
-172 -240 0
-172 -241 0
-172 -242 0
-172 -243 0
-172 -244 0
-172 -245 0
-172 -246 0
-172 -247 0
-172 -248 0
-172 -249 0
-172 -250 0
-172 -251 0
-172 -252 0
-172 -253 0
-172 -254 0
-172 -255 0
-172 -256 0
-173 -174 0
-173 -175 0
-173 -176 0
-173 -177 0
-173 -178 0
-173 -179 0
-173 -180 0
-173 -181 0
-173 -182 0
-173 -183 0
-173 -184 0
-173 -185 0
-173 -186 0
-173 -187 0
-173 -188 0
-173 -189 0
-173 -190 0
-173 -191 0
-173 -192 0
-173 -193 0
-173 -194 0
-173 -195 0
-173 -196 0
-173 -197 0
-173 -198 0
-173 -199 0
-173 -200 0
-173 -201 0
-173 -202 0
-173 -203 0
-173 -204 0
-173 -205 0
-173 -206 0
-173 -207 0
-173 -208 0
-173 -209 0
-173 -210 0
-173 -211 0
-173 -212 0
-173 -213 0
-173 -214 0
-173 -215 0
-173 -216 0
-173 -217 0
-173 -218 0
-173 -219 0
-173 -220 0
-173 -221 0
-173 -222 0
-173 -223 0
-173 -224 0
-173 -225 0
-173 -226 0
-173 -227 0
-173 -228 0
-173 -229 0
-173 -230 0
-173 -231 0
-173 -232 0
-173 -233 0
-173 -234 0
-173 -235 0
-173 -236 0
-173 -237 0
-173 -238 0
-173 -239 0
-173 -240 0
-173 -241 0
-173 -242 0
-173 -243 0
-173 -244 0
-173 -245 0
-173 -246 0
-173 -247 0
-173 -248 0
-173 -249 0
-173 -250 0
-173 -251 0
-173 -252 0
-173 -253 0
-173 -254 0
-173 -255 0
-173 -256 0
-174 -175 0
-174 -176 0
-174 -177 0
-174 -178 0
-174 -179 0
-174 -180 0
-174 -181 0
-174 -182 0
-174 -183 0
-174 -184 0
-174 -185 0
-174 -186 0
-174 -187 0
-174 -188 0
-174 -189 0
-174 -190 0
-174 -191 0
-174 -192 0
-174 -193 0
-174 -194 0
-174 -195 0
-174 -196 0
-174 -197 0
-174 -198 0
-174 -199 0
-174 -200 0
-174 -201 0
-174 -202 0
-174 -203 0
-174 -204 0
-174 -205 0
-174 -206 0
-174 -207 0
-174 -208 0
-174 -209 0
-174 -210 0
-174 -211 0
-174 -212 0
-174 -213 0
-174 -214 0
-174 -215 0
-174 -216 0
-174 -217 0
-174 -218 0
-174 -219 0
-174 -220 0
-174 -221 0
-174 -222 0
-174 -223 0
-174 -224 0
-174 -225 0
-174 -226 0
-174 -227 0
-174 -228 0
-174 -229 0
-174 -230 0
-174 -231 0
-174 -232 0
-174 -233 0
-174 -234 0
-174 -235 0
-174 -236 0
-174 -237 0
-174 -238 0
-174 -239 0
-174 -240 0
-174 -241 0
-174 -242 0
-174 -243 0
-174 -244 0
-174 -245 0
-174 -246 0
-174 -247 0
-174 -248 0
-174 -249 0
-174 -250 0
-174 -251 0
-174 -252 0
-174 -253 0
-174 -254 0
-174 -255 0
-174 -256 0
-175 -176 0
-175 -177 0
-175 -178 0
-175 -179 0
-175 -180 0
-175 -181 0
-175 -182 0
-175 -183 0
-175 -184 0
-175 -185 0
-175 -186 0
-175 -187 0
-175 -188 0
-175 -189 0
-175 -190 0
-175 -191 0
-175 -192 0
-175 -193 0
-175 -194 0
-175 -195 0
-175 -196 0
-175 -197 0
-175 -198 0
-175 -199 0
-175 -200 0
-175 -201 0
-175 -202 0
-175 -203 0
-175 -204 0
-175 -205 0
-175 -206 0
-175 -207 0
-175 -208 0
-175 -209 0
-175 -210 0
-175 -211 0
-175 -212 0
-175 -213 0
-175 -214 0
-175 -215 0
-175 -216 0
-175 -217 0
-175 -218 0
-175 -219 0
-175 -220 0
-175 -221 0
-175 -222 0
-175 -223 0
-175 -224 0
-175 -225 0
-175 -226 0
-175 -227 0
-175 -228 0
-175 -229 0
-175 -230 0
-175 -231 0
-175 -232 0
-175 -233 0
-175 -234 0
-175 -235 0
-175 -236 0
-175 -237 0
-175 -238 0
-175 -239 0
-175 -240 0
-175 -241 0
-175 -242 0
-175 -243 0
-175 -244 0
-175 -245 0
-175 -246 0
-175 -247 0
-175 -248 0
-175 -249 0
-175 -250 0
-175 -251 0
-175 -252 0
-175 -253 0
-175 -254 0
-175 -255 0
-175 -256 0
-176 -177 0
-176 -178 0
-176 -179 0
-176 -180 0
-176 -181 0
-176 -182 0
-176 -183 0
-176 -184 0
-176 -185 0
-176 -186 0
-176 -187 0
-176 -188 0
-176 -189 0
-176 -190 0
-176 -191 0
-176 -192 0
-176 -193 0
-176 -194 0
-176 -195 0
-176 -196 0
-176 -197 0
-176 -198 0
-176 -199 0
-176 -200 0
-176 -201 0
-176 -202 0
-176 -203 0
-176 -204 0
-176 -205 0
-176 -206 0
-176 -207 0
-176 -208 0
-176 -209 0
-176 -210 0
-176 -211 0
-176 -212 0
-176 -213 0
-176 -214 0
-176 -215 0
-176 -216 0
-176 -217 0
-176 -218 0
-176 -219 0
-176 -220 0
-176 -221 0
-176 -222 0
-176 -223 0
-176 -224 0
-176 -225 0
-176 -226 0
-176 -227 0
-176 -228 0
-176 -229 0
-176 -230 0
-176 -231 0
-176 -232 0
-176 -233 0
-176 -234 0
-176 -235 0
-176 -236 0
-176 -237 0
-176 -238 0
-176 -239 0
-176 -240 0
-176 -241 0
-176 -242 0
-176 -243 0
-176 -244 0
-176 -245 0
-176 -246 0
-176 -247 0
-176 -248 0
-176 -249 0
-176 -250 0
-176 -251 0
-176 -252 0
-176 -253 0
-176 -254 0
-176 -255 0
-176 -256 0
-177 -178 0
-177 -179 0
-177 -180 0
-177 -181 0
-177 -182 0
-177 -183 0
-177 -184 0
-177 -185 0
-177 -186 0
-177 -187 0
-177 -188 0
-177 -189 0
-177 -190 0
-177 -191 0
-177 -192 0
-177 -193 0
-177 -194 0
-177 -195 0
-177 -196 0
-177 -197 0
-177 -198 0
-177 -199 0
-177 -200 0
-177 -201 0
-177 -202 0
-177 -203 0
-177 -204 0
-177 -205 0
-177 -206 0
-177 -207 0
-177 -208 0
-177 -209 0
-177 -210 0
-177 -211 0
-177 -212 0
-177 -213 0
-177 -214 0
-177 -215 0
-177 -216 0
-177 -217 0
-177 -218 0
-177 -219 0
-177 -220 0
-177 -221 0
-177 -222 0
-177 -223 0
-177 -224 0
-177 -225 0
-177 -226 0
-177 -227 0
-177 -228 0
-177 -229 0
-177 -230 0
-177 -231 0
-177 -232 0
-177 -233 0
-177 -234 0
-177 -235 0
-177 -236 0
-177 -237 0
-177 -238 0
-177 -239 0
-177 -240 0
-177 -241 0
-177 -242 0
-177 -243 0
-177 -244 0
-177 -245 0
-177 -246 0
-177 -247 0
-177 -248 0
-177 -249 0
-177 -250 0
-177 -251 0
-177 -252 0
-177 -253 0
-177 -254 0
-177 -255 0
-177 -256 0
-178 -179 0
-178 -180 0
-178 -181 0
-178 -182 0
-178 -183 0
-178 -184 0
-178 -185 0
-178 -186 0
-178 -187 0
-178 -188 0
-178 -189 0
-178 -190 0
-178 -191 0
-178 -192 0
-178 -193 0
-178 -194 0
-178 -195 0
-178 -196 0
-178 -197 0
-178 -198 0
-178 -199 0
-178 -200 0
-178 -201 0
-178 -202 0
-178 -203 0
-178 -204 0
-178 -205 0
-178 -206 0
-178 -207 0
-178 -208 0
-178 -209 0
-178 -210 0
-178 -211 0
-178 -212 0
-178 -213 0
-178 -214 0
-178 -215 0
-178 -216 0
-178 -217 0
-178 -218 0
-178 -219 0
-178 -220 0
-178 -221 0
-178 -222 0
-178 -223 0
-178 -224 0
-178 -225 0
-178 -226 0
-178 -227 0
-178 -228 0
-178 -229 0
-178 -230 0
-178 -231 0
-178 -232 0
-178 -233 0
-178 -234 0
-178 -235 0
-178 -236 0
-178 -237 0
-178 -238 0
-178 -239 0
-178 -240 0
-178 -241 0
-178 -242 0
-178 -243 0
-178 -244 0
-178 -245 0
-178 -246 0
-178 -247 0
-178 -248 0
-178 -249 0
-178 -250 0
-178 -251 0
-178 -252 0
-178 -253 0
-178 -254 0
-178 -255 0
-178 -256 0
-179 -180 0
-179 -181 0
-179 -182 0
-179 -183 0
-179 -184 0
-179 -185 0
-179 -186 0
-179 -187 0
-179 -188 0
-179 -189 0
-179 -190 0
-179 -191 0
-179 -192 0
-179 -193 0
-179 -194 0
-179 -195 0
-179 -196 0
-179 -197 0
-179 -198 0
-179 -199 0
-179 -200 0
-179 -201 0
-179 -202 0
-179 -203 0
-179 -204 0
-179 -205 0
-179 -206 0
-179 -207 0
-179 -208 0
-179 -209 0
-179 -210 0
-179 -211 0
-179 -212 0
-179 -213 0
-179 -214 0
-179 -215 0
-179 -216 0
-179 -217 0
-179 -218 0
-179 -219 0
-179 -220 0
-179 -221 0
-179 -222 0
-179 -223 0
-179 -224 0
-179 -225 0
-179 -226 0
-179 -227 0
-179 -228 0
-179 -229 0
-179 -230 0
-179 -231 0
-179 -232 0
-179 -233 0
-179 -234 0
-179 -235 0
-179 -236 0
-179 -237 0
-179 -238 0
-179 -239 0
-179 -240 0
-179 -241 0
-179 -242 0
-179 -243 0
-179 -244 0
-179 -245 0
-179 -246 0
-179 -247 0
-179 -248 0
-179 -249 0
-179 -250 0
-179 -251 0
-179 -252 0
-179 -253 0
-179 -254 0
-179 -255 0
-179 -256 0
-180 -181 0
-180 -182 0
-180 -183 0
-180 -184 0
-180 -185 0
-180 -186 0
-180 -187 0
-180 -188 0
-180 -189 0
-180 -190 0
-180 -191 0
-180 -192 0
-180 -193 0
-180 -194 0
-180 -195 0
-180 -196 0
-180 -197 0
-180 -198 0
-180 -199 0
-180 -200 0
-180 -201 0
-180 -202 0
-180 -203 0
-180 -204 0
-180 -205 0
-180 -206 0
-180 -207 0
-180 -208 0
-180 -209 0
-180 -210 0
-180 -211 0
-180 -212 0
-180 -213 0
-180 -214 0
-180 -215 0
-180 -216 0
-180 -217 0
-180 -218 0
-180 -219 0
-180 -220 0
-180 -221 0
-180 -222 0
-180 -223 0
-180 -224 0
-180 -225 0
-180 -226 0
-180 -227 0
-180 -228 0
-180 -229 0
-180 -230 0
-180 -231 0
-180 -232 0
-180 -233 0
-180 -234 0
-180 -235 0
-180 -236 0
-180 -237 0
-180 -238 0
-180 -239 0
-180 -240 0
-180 -241 0
-180 -242 0
-180 -243 0
-180 -244 0
-180 -245 0
-180 -246 0
-180 -247 0
-180 -248 0
-180 -249 0
-180 -250 0
-180 -251 0
-180 -252 0
-180 -253 0
-180 -254 0
-180 -255 0
-180 -256 0
-181 -182 0
-181 -183 0
-181 -184 0
-181 -185 0
-181 -186 0
-181 -187 0
-181 -188 0
-181 -189 0
-181 -190 0
-181 -191 0
-181 -192 0
-181 -193 0
-181 -194 0
-181 -195 0
-181 -196 0
-181 -197 0
-181 -198 0
-181 -199 0
-181 -200 0
-181 -201 0
-181 -202 0
-181 -203 0
-181 -204 0
-181 -205 0
-181 -206 0
-181 -207 0
-181 -208 0
-181 -209 0
-181 -210 0
-181 -211 0
-181 -212 0
-181 -213 0
-181 -214 0
-181 -215 0
-181 -216 0
-181 -217 0
-181 -218 0
-181 -219 0
-181 -220 0
-181 -221 0
-181 -222 0
-181 -223 0
-181 -224 0
-181 -225 0
-181 -226 0
-181 -227 0
-181 -228 0
-181 -229 0
-181 -230 0
-181 -231 0
-181 -232 0
-181 -233 0
-181 -234 0
-181 -235 0
-181 -236 0
-181 -237 0
-181 -238 0
-181 -239 0
-181 -240 0
-181 -241 0
-181 -242 0
-181 -243 0
-181 -244 0
-181 -245 0
-181 -246 0
-181 -247 0
-181 -248 0
-181 -249 0
-181 -250 0
-181 -251 0
-181 -252 0
-181 -253 0
-181 -254 0
-181 -255 0
-181 -256 0
-182 -183 0
-182 -184 0
-182 -185 0
-182 -186 0
-182 -187 0
-182 -188 0
-182 -189 0
-182 -190 0
-182 -191 0
-182 -192 0
-182 -193 0
-182 -194 0
-182 -195 0
-182 -196 0
-182 -197 0
-182 -198 0
-182 -199 0
-182 -200 0
-182 -201 0
-182 -202 0
-182 -203 0
-182 -204 0
-182 -205 0
-182 -206 0
-182 -207 0
-182 -208 0
-182 -209 0
-182 -210 0
-182 -211 0
-182 -212 0
-182 -213 0
-182 -214 0
-182 -215 0
-182 -216 0
-182 -217 0
-182 -218 0
-182 -219 0
-182 -220 0
-182 -221 0
-182 -222 0
-182 -223 0
-182 -224 0
-182 -225 0
-182 -226 0
-182 -227 0
-182 -228 0
-182 -229 0
-182 -230 0
-182 -231 0
-182 -232 0
-182 -233 0
-182 -234 0
-182 -235 0
-182 -236 0
-182 -237 0
-182 -238 0
-182 -239 0
-182 -240 0
-182 -241 0
-182 -242 0
-182 -243 0
-182 -244 0
-182 -245 0
-182 -246 0
-182 -247 0
-182 -248 0
-182 -249 0
-182 -250 0
-182 -251 0
-182 -252 0
-182 -253 0
-182 -254 0
-182 -255 0
-182 -256 0
-183 -184 0
-183 -185 0
-183 -186 0
-183 -187 0
-183 -188 0
-183 -189 0
-183 -190 0
-183 -191 0
-183 -192 0
-183 -193 0
-183 -194 0
-183 -195 0
-183 -196 0
-183 -197 0
-183 -198 0
-183 -199 0
-183 -200 0
-183 -201 0
-183 -202 0
-183 -203 0
-183 -204 0
-183 -205 0
-183 -206 0
-183 -207 0
-183 -208 0
-183 -209 0
-183 -210 0
-183 -211 0
-183 -212 0
-183 -213 0
-183 -214 0
-183 -215 0
-183 -216 0
-183 -217 0
-183 -218 0
-183 -219 0
-183 -220 0
-183 -221 0
-183 -222 0
-183 -223 0
-183 -224 0
-183 -225 0
-183 -226 0
-183 -227 0
-183 -228 0
-183 -229 0
-183 -230 0
-183 -231 0
-183 -232 0
-183 -233 0
-183 -234 0
-183 -235 0
-183 -236 0
-183 -237 0
-183 -238 0
-183 -239 0
-183 -240 0
-183 -241 0
-183 -242 0
-183 -243 0
-183 -244 0
-183 -245 0
-183 -246 0
-183 -247 0
-183 -248 0
-183 -249 0
-183 -250 0
-183 -251 0
-183 -252 0
-183 -253 0
-183 -254 0
-183 -255 0
-183 -256 0
-184 -185 0
-184 -186 0
-184 -187 0
-184 -188 0
-184 -189 0
-184 -190 0
-184 -191 0
-184 -192 0
-184 -193 0
-184 -194 0
-184 -195 0
-184 -196 0
-184 -197 0
-184 -198 0
-184 -199 0
-184 -200 0
-184 -201 0
-184 -202 0
-184 -203 0
-184 -204 0
-184 -205 0
-184 -206 0
-184 -207 0
-184 -208 0
-184 -209 0
-184 -210 0
-184 -211 0
-184 -212 0
-184 -213 0
-184 -214 0
-184 -215 0
-184 -216 0
-184 -217 0
-184 -218 0
-184 -219 0
-184 -220 0
-184 -221 0
-184 -222 0
-184 -223 0
-184 -224 0
-184 -225 0
-184 -226 0
-184 -227 0
-184 -228 0
-184 -229 0
-184 -230 0
-184 -231 0
-184 -232 0
-184 -233 0
-184 -234 0
-184 -235 0
-184 -236 0
-184 -237 0
-184 -238 0
-184 -239 0
-184 -240 0
-184 -241 0
-184 -242 0
-184 -243 0
-184 -244 0
-184 -245 0
-184 -246 0
-184 -247 0
-184 -248 0
-184 -249 0
-184 -250 0
-184 -251 0
-184 -252 0
-184 -253 0
-184 -254 0
-184 -255 0
-184 -256 0
-185 -186 0
-185 -187 0
-185 -188 0
-185 -189 0
-185 -190 0
-185 -191 0
-185 -192 0
-185 -193 0
-185 -194 0
-185 -195 0
-185 -196 0
-185 -197 0
-185 -198 0
-185 -199 0
-185 -200 0
-185 -201 0
-185 -202 0
-185 -203 0
-185 -204 0
-185 -205 0
-185 -206 0
-185 -207 0
-185 -208 0
-185 -209 0
-185 -210 0
-185 -211 0
-185 -212 0
-185 -213 0
-185 -214 0
-185 -215 0
-185 -216 0
-185 -217 0
-185 -218 0
-185 -219 0
-185 -220 0
-185 -221 0
-185 -222 0
-185 -223 0
-185 -224 0
-185 -225 0
-185 -226 0
-185 -227 0
-185 -228 0
-185 -229 0
-185 -230 0
-185 -231 0
-185 -232 0
-185 -233 0
-185 -234 0
-185 -235 0
-185 -236 0
-185 -237 0
-185 -238 0
-185 -239 0
-185 -240 0
-185 -241 0
-185 -242 0
-185 -243 0
-185 -244 0
-185 -245 0
-185 -246 0
-185 -247 0
-185 -248 0
-185 -249 0
-185 -250 0
-185 -251 0
-185 -252 0
-185 -253 0
-185 -254 0
-185 -255 0
-185 -256 0
-186 -187 0
-186 -188 0
-186 -189 0
-186 -190 0
-186 -191 0
-186 -192 0
-186 -193 0
-186 -194 0
-186 -195 0
-186 -196 0
-186 -197 0
-186 -198 0
-186 -199 0
-186 -200 0
-186 -201 0
-186 -202 0
-186 -203 0
-186 -204 0
-186 -205 0
-186 -206 0
-186 -207 0
-186 -208 0
-186 -209 0
-186 -210 0
-186 -211 0
-186 -212 0
-186 -213 0
-186 -214 0
-186 -215 0
-186 -216 0
-186 -217 0
-186 -218 0
-186 -219 0
-186 -220 0
-186 -221 0
-186 -222 0
-186 -223 0
-186 -224 0
-186 -225 0
-186 -226 0
-186 -227 0
-186 -228 0
-186 -229 0
-186 -230 0
-186 -231 0
-186 -232 0
-186 -233 0
-186 -234 0
-186 -235 0
-186 -236 0
-186 -237 0
-186 -238 0
-186 -239 0
-186 -240 0
-186 -241 0
-186 -242 0
-186 -243 0
-186 -244 0
-186 -245 0
-186 -246 0
-186 -247 0
-186 -248 0
-186 -249 0
-186 -250 0
-186 -251 0
-186 -252 0
-186 -253 0
-186 -254 0
-186 -255 0
-186 -256 0
-187 -188 0
-187 -189 0
-187 -190 0
-187 -191 0
-187 -192 0
-187 -193 0
-187 -194 0
-187 -195 0
-187 -196 0
-187 -197 0
-187 -198 0
-187 -199 0
-187 -200 0
-187 -201 0
-187 -202 0
-187 -203 0
-187 -204 0
-187 -205 0
-187 -206 0
-187 -207 0
-187 -208 0
-187 -209 0
-187 -210 0
-187 -211 0
-187 -212 0
-187 -213 0
-187 -214 0
-187 -215 0
-187 -216 0
-187 -217 0
-187 -218 0
-187 -219 0
-187 -220 0
-187 -221 0
-187 -222 0
-187 -223 0
-187 -224 0
-187 -225 0
-187 -226 0
-187 -227 0
-187 -228 0
-187 -229 0
-187 -230 0
-187 -231 0
-187 -232 0
-187 -233 0
-187 -234 0
-187 -235 0
-187 -236 0
-187 -237 0
-187 -238 0
-187 -239 0
-187 -240 0
-187 -241 0
-187 -242 0
-187 -243 0
-187 -244 0
-187 -245 0
-187 -246 0
-187 -247 0
-187 -248 0
-187 -249 0
-187 -250 0
-187 -251 0
-187 -252 0
-187 -253 0
-187 -254 0
-187 -255 0
-187 -256 0
-188 -189 0
-188 -190 0
-188 -191 0
-188 -192 0
-188 -193 0
-188 -194 0
-188 -195 0
-188 -196 0
-188 -197 0
-188 -198 0
-188 -199 0
-188 -200 0
-188 -201 0
-188 -202 0
-188 -203 0
-188 -204 0
-188 -205 0
-188 -206 0
-188 -207 0
-188 -208 0
-188 -209 0
-188 -210 0
-188 -211 0
-188 -212 0
-188 -213 0
-188 -214 0
-188 -215 0
-188 -216 0
-188 -217 0
-188 -218 0
-188 -219 0
-188 -220 0
-188 -221 0
-188 -222 0
-188 -223 0
-188 -224 0
-188 -225 0
-188 -226 0
-188 -227 0
-188 -228 0
-188 -229 0
-188 -230 0
-188 -231 0
-188 -232 0
-188 -233 0
-188 -234 0
-188 -235 0
-188 -236 0
-188 -237 0
-188 -238 0
-188 -239 0
-188 -240 0
-188 -241 0
-188 -242 0
-188 -243 0
-188 -244 0
-188 -245 0
-188 -246 0
-188 -247 0
-188 -248 0
-188 -249 0
-188 -250 0
-188 -251 0
-188 -252 0
-188 -253 0
-188 -254 0
-188 -255 0
-188 -256 0
-189 -190 0
-189 -191 0
-189 -192 0
-189 -193 0
-189 -194 0
-189 -195 0
-189 -196 0
-189 -197 0
-189 -198 0
-189 -199 0
-189 -200 0
-189 -201 0
-189 -202 0
-189 -203 0
-189 -204 0
-189 -205 0
-189 -206 0
-189 -207 0
-189 -208 0
-189 -209 0
-189 -210 0
-189 -211 0
-189 -212 0
-189 -213 0
-189 -214 0
-189 -215 0
-189 -216 0
-189 -217 0
-189 -218 0
-189 -219 0
-189 -220 0
-189 -221 0
-189 -222 0
-189 -223 0
-189 -224 0
-189 -225 0
-189 -226 0
-189 -227 0
-189 -228 0
-189 -229 0
-189 -230 0
-189 -231 0
-189 -232 0
-189 -233 0
-189 -234 0
-189 -235 0
-189 -236 0
-189 -237 0
-189 -238 0
-189 -239 0
-189 -240 0
-189 -241 0
-189 -242 0
-189 -243 0
-189 -244 0
-189 -245 0
-189 -246 0
-189 -247 0
-189 -248 0
-189 -249 0
-189 -250 0
-189 -251 0
-189 -252 0
-189 -253 0
-189 -254 0
-189 -255 0
-189 -256 0
-190 -191 0
-190 -192 0
-190 -193 0
-190 -194 0
-190 -195 0
-190 -196 0
-190 -197 0
-190 -198 0
-190 -199 0
-190 -200 0
-190 -201 0
-190 -202 0
-190 -203 0
-190 -204 0
-190 -205 0
-190 -206 0
-190 -207 0
-190 -208 0
-190 -209 0
-190 -210 0
-190 -211 0
-190 -212 0
-190 -213 0
-190 -214 0
-190 -215 0
-190 -216 0
-190 -217 0
-190 -218 0
-190 -219 0
-190 -220 0
-190 -221 0
-190 -222 0
-190 -223 0
-190 -224 0
-190 -225 0
-190 -226 0
-190 -227 0
-190 -228 0
-190 -229 0
-190 -230 0
-190 -231 0
-190 -232 0
-190 -233 0
-190 -234 0
-190 -235 0
-190 -236 0
-190 -237 0
-190 -238 0
-190 -239 0
-190 -240 0
-190 -241 0
-190 -242 0
-190 -243 0
-190 -244 0
-190 -245 0
-190 -246 0
-190 -247 0
-190 -248 0
-190 -249 0
-190 -250 0
-190 -251 0
-190 -252 0
-190 -253 0
-190 -254 0
-190 -255 0
-190 -256 0
-191 -192 0
-191 -193 0
-191 -194 0
-191 -195 0
-191 -196 0
-191 -197 0
-191 -198 0
-191 -199 0
-191 -200 0
-191 -201 0
-191 -202 0
-191 -203 0
-191 -204 0
-191 -205 0
-191 -206 0
-191 -207 0
-191 -208 0
-191 -209 0
-191 -210 0
-191 -211 0
-191 -212 0
-191 -213 0
-191 -214 0
-191 -215 0
-191 -216 0
-191 -217 0
-191 -218 0
-191 -219 0
-191 -220 0
-191 -221 0
-191 -222 0
-191 -223 0
-191 -224 0
-191 -225 0
-191 -226 0
-191 -227 0
-191 -228 0
-191 -229 0
-191 -230 0
-191 -231 0
-191 -232 0
-191 -233 0
-191 -234 0
-191 -235 0
-191 -236 0
-191 -237 0
-191 -238 0
-191 -239 0
-191 -240 0
-191 -241 0
-191 -242 0
-191 -243 0
-191 -244 0
-191 -245 0
-191 -246 0
-191 -247 0
-191 -248 0
-191 -249 0
-191 -250 0
-191 -251 0
-191 -252 0
-191 -253 0
-191 -254 0
-191 -255 0
-191 -256 0
-192 -193 0
-192 -194 0
-192 -195 0
-192 -196 0
-192 -197 0
-192 -198 0
-192 -199 0
-192 -200 0
-192 -201 0
-192 -202 0
-192 -203 0
-192 -204 0
-192 -205 0
-192 -206 0
-192 -207 0
-192 -208 0
-192 -209 0
-192 -210 0
-192 -211 0
-192 -212 0
-192 -213 0
-192 -214 0
-192 -215 0
-192 -216 0
-192 -217 0
-192 -218 0
-192 -219 0
-192 -220 0
-192 -221 0
-192 -222 0
-192 -223 0
-192 -224 0
-192 -225 0
-192 -226 0
-192 -227 0
-192 -228 0
-192 -229 0
-192 -230 0
-192 -231 0
-192 -232 0
-192 -233 0
-192 -234 0
-192 -235 0
-192 -236 0
-192 -237 0
-192 -238 0
-192 -239 0
-192 -240 0
-192 -241 0
-192 -242 0
-192 -243 0
-192 -244 0
-192 -245 0
-192 -246 0
-192 -247 0
-192 -248 0
-192 -249 0
-192 -250 0
-192 -251 0
-192 -252 0
-192 -253 0
-192 -254 0
-192 -255 0
-192 -256 0
-193 -194 0
-193 -195 0
-193 -196 0
-193 -197 0
-193 -198 0
-193 -199 0
-193 -200 0
-193 -201 0
-193 -202 0
-193 -203 0
-193 -204 0
-193 -205 0
-193 -206 0
-193 -207 0
-193 -208 0
-193 -209 0
-193 -210 0
-193 -211 0
-193 -212 0
-193 -213 0
-193 -214 0
-193 -215 0
-193 -216 0
-193 -217 0
-193 -218 0
-193 -219 0
-193 -220 0
-193 -221 0
-193 -222 0
-193 -223 0
-193 -224 0
-193 -225 0
-193 -226 0
-193 -227 0
-193 -228 0
-193 -229 0
-193 -230 0
-193 -231 0
-193 -232 0
-193 -233 0
-193 -234 0
-193 -235 0
-193 -236 0
-193 -237 0
-193 -238 0
-193 -239 0
-193 -240 0
-193 -241 0
-193 -242 0
-193 -243 0
-193 -244 0
-193 -245 0
-193 -246 0
-193 -247 0
-193 -248 0
-193 -249 0
-193 -250 0
-193 -251 0
-193 -252 0
-193 -253 0
-193 -254 0
-193 -255 0
-193 -256 0
-194 -195 0
-194 -196 0
-194 -197 0
-194 -198 0
-194 -199 0
-194 -200 0
-194 -201 0
-194 -202 0
-194 -203 0
-194 -204 0
-194 -205 0
-194 -206 0
-194 -207 0
-194 -208 0
-194 -209 0
-194 -210 0
-194 -211 0
-194 -212 0
-194 -213 0
-194 -214 0
-194 -215 0
-194 -216 0
-194 -217 0
-194 -218 0
-194 -219 0
-194 -220 0
-194 -221 0
-194 -222 0
-194 -223 0
-194 -224 0
-194 -225 0
-194 -226 0
-194 -227 0
-194 -228 0
-194 -229 0
-194 -230 0
-194 -231 0
-194 -232 0
-194 -233 0
-194 -234 0
-194 -235 0
-194 -236 0
-194 -237 0
-194 -238 0
-194 -239 0
-194 -240 0
-194 -241 0
-194 -242 0
-194 -243 0
-194 -244 0
-194 -245 0
-194 -246 0
-194 -247 0
-194 -248 0
-194 -249 0
-194 -250 0
-194 -251 0
-194 -252 0
-194 -253 0
-194 -254 0
-194 -255 0
-194 -256 0
-195 -196 0
-195 -197 0
-195 -198 0
-195 -199 0
-195 -200 0
-195 -201 0
-195 -202 0
-195 -203 0
-195 -204 0
-195 -205 0
-195 -206 0
-195 -207 0
-195 -208 0
-195 -209 0
-195 -210 0
-195 -211 0
-195 -212 0
-195 -213 0
-195 -214 0
-195 -215 0
-195 -216 0
-195 -217 0
-195 -218 0
-195 -219 0
-195 -220 0
-195 -221 0
-195 -222 0
-195 -223 0
-195 -224 0
-195 -225 0
-195 -226 0
-195 -227 0
-195 -228 0
-195 -229 0
-195 -230 0
-195 -231 0
-195 -232 0
-195 -233 0
-195 -234 0
-195 -235 0
-195 -236 0
-195 -237 0
-195 -238 0
-195 -239 0
-195 -240 0
-195 -241 0
-195 -242 0
-195 -243 0
-195 -244 0
-195 -245 0
-195 -246 0
-195 -247 0
-195 -248 0
-195 -249 0
-195 -250 0
-195 -251 0
-195 -252 0
-195 -253 0
-195 -254 0
-195 -255 0
-195 -256 0
-196 -197 0
-196 -198 0
-196 -199 0
-196 -200 0
-196 -201 0
-196 -202 0
-196 -203 0
-196 -204 0
-196 -205 0
-196 -206 0
-196 -207 0
-196 -208 0
-196 -209 0
-196 -210 0
-196 -211 0
-196 -212 0
-196 -213 0
-196 -214 0
-196 -215 0
-196 -216 0
-196 -217 0
-196 -218 0
-196 -219 0
-196 -220 0
-196 -221 0
-196 -222 0
-196 -223 0
-196 -224 0
-196 -225 0
-196 -226 0
-196 -227 0
-196 -228 0
-196 -229 0
-196 -230 0
-196 -231 0
-196 -232 0
-196 -233 0
-196 -234 0
-196 -235 0
-196 -236 0
-196 -237 0
-196 -238 0
-196 -239 0
-196 -240 0
-196 -241 0
-196 -242 0
-196 -243 0
-196 -244 0
-196 -245 0
-196 -246 0
-196 -247 0
-196 -248 0
-196 -249 0
-196 -250 0
-196 -251 0
-196 -252 0
-196 -253 0
-196 -254 0
-196 -255 0
-196 -256 0
-197 -198 0
-197 -199 0
-197 -200 0
-197 -201 0
-197 -202 0
-197 -203 0
-197 -204 0
-197 -205 0
-197 -206 0
-197 -207 0
-197 -208 0
-197 -209 0
-197 -210 0
-197 -211 0
-197 -212 0
-197 -213 0
-197 -214 0
-197 -215 0
-197 -216 0
-197 -217 0
-197 -218 0
-197 -219 0
-197 -220 0
-197 -221 0
-197 -222 0
-197 -223 0
-197 -224 0
-197 -225 0
-197 -226 0
-197 -227 0
-197 -228 0
-197 -229 0
-197 -230 0
-197 -231 0
-197 -232 0
-197 -233 0
-197 -234 0
-197 -235 0
-197 -236 0
-197 -237 0
-197 -238 0
-197 -239 0
-197 -240 0
-197 -241 0
-197 -242 0
-197 -243 0
-197 -244 0
-197 -245 0
-197 -246 0
-197 -247 0
-197 -248 0
-197 -249 0
-197 -250 0
-197 -251 0
-197 -252 0
-197 -253 0
-197 -254 0
-197 -255 0
-197 -256 0
-198 -199 0
-198 -200 0
-198 -201 0
-198 -202 0
-198 -203 0
-198 -204 0
-198 -205 0
-198 -206 0
-198 -207 0
-198 -208 0
-198 -209 0
-198 -210 0
-198 -211 0
-198 -212 0
-198 -213 0
-198 -214 0
-198 -215 0
-198 -216 0
-198 -217 0
-198 -218 0
-198 -219 0
-198 -220 0
-198 -221 0
-198 -222 0
-198 -223 0
-198 -224 0
-198 -225 0
-198 -226 0
-198 -227 0
-198 -228 0
-198 -229 0
-198 -230 0
-198 -231 0
-198 -232 0
-198 -233 0
-198 -234 0
-198 -235 0
-198 -236 0
-198 -237 0
-198 -238 0
-198 -239 0
-198 -240 0
-198 -241 0
-198 -242 0
-198 -243 0
-198 -244 0
-198 -245 0
-198 -246 0
-198 -247 0
-198 -248 0
-198 -249 0
-198 -250 0
-198 -251 0
-198 -252 0
-198 -253 0
-198 -254 0
-198 -255 0
-198 -256 0
-199 -200 0
-199 -201 0
-199 -202 0
-199 -203 0
-199 -204 0
-199 -205 0
-199 -206 0
-199 -207 0
-199 -208 0
-199 -209 0
-199 -210 0
-199 -211 0
-199 -212 0
-199 -213 0
-199 -214 0
-199 -215 0
-199 -216 0
-199 -217 0
-199 -218 0
-199 -219 0
-199 -220 0
-199 -221 0
-199 -222 0
-199 -223 0
-199 -224 0
-199 -225 0
-199 -226 0
-199 -227 0
-199 -228 0
-199 -229 0
-199 -230 0
-199 -231 0
-199 -232 0
-199 -233 0
-199 -234 0
-199 -235 0
-199 -236 0
-199 -237 0
-199 -238 0
-199 -239 0
-199 -240 0
-199 -241 0
-199 -242 0
-199 -243 0
-199 -244 0
-199 -245 0
-199 -246 0
-199 -247 0
-199 -248 0
-199 -249 0
-199 -250 0
-199 -251 0
-199 -252 0
-199 -253 0
-199 -254 0
-199 -255 0
-199 -256 0
-200 -201 0
-200 -202 0
-200 -203 0
-200 -204 0
-200 -205 0
-200 -206 0
-200 -207 0
-200 -208 0
-200 -209 0
-200 -210 0
-200 -211 0
-200 -212 0
-200 -213 0
-200 -214 0
-200 -215 0
-200 -216 0
-200 -217 0
-200 -218 0
-200 -219 0
-200 -220 0
-200 -221 0
-200 -222 0
-200 -223 0
-200 -224 0
-200 -225 0
-200 -226 0
-200 -227 0
-200 -228 0
-200 -229 0
-200 -230 0
-200 -231 0
-200 -232 0
-200 -233 0
-200 -234 0
-200 -235 0
-200 -236 0
-200 -237 0
-200 -238 0
-200 -239 0
-200 -240 0
-200 -241 0
-200 -242 0
-200 -243 0
-200 -244 0
-200 -245 0
-200 -246 0
-200 -247 0
-200 -248 0
-200 -249 0
-200 -250 0
-200 -251 0
-200 -252 0
-200 -253 0
-200 -254 0
-200 -255 0
-200 -256 0
-201 -202 0
-201 -203 0
-201 -204 0
-201 -205 0
-201 -206 0
-201 -207 0
-201 -208 0
-201 -209 0
-201 -210 0
-201 -211 0
-201 -212 0
-201 -213 0
-201 -214 0
-201 -215 0
-201 -216 0
-201 -217 0
-201 -218 0
-201 -219 0
-201 -220 0
-201 -221 0
-201 -222 0
-201 -223 0
-201 -224 0
-201 -225 0
-201 -226 0
-201 -227 0
-201 -228 0
-201 -229 0
-201 -230 0
-201 -231 0
-201 -232 0
-201 -233 0
-201 -234 0
-201 -235 0
-201 -236 0
-201 -237 0
-201 -238 0
-201 -239 0
-201 -240 0
-201 -241 0
-201 -242 0
-201 -243 0
-201 -244 0
-201 -245 0
-201 -246 0
-201 -247 0
-201 -248 0
-201 -249 0
-201 -250 0
-201 -251 0
-201 -252 0
-201 -253 0
-201 -254 0
-201 -255 0
-201 -256 0
-202 -203 0
-202 -204 0
-202 -205 0
-202 -206 0
-202 -207 0
-202 -208 0
-202 -209 0
-202 -210 0
-202 -211 0
-202 -212 0
-202 -213 0
-202 -214 0
-202 -215 0
-202 -216 0
-202 -217 0
-202 -218 0
-202 -219 0
-202 -220 0
-202 -221 0
-202 -222 0
-202 -223 0
-202 -224 0
-202 -225 0
-202 -226 0
-202 -227 0
-202 -228 0
-202 -229 0
-202 -230 0
-202 -231 0
-202 -232 0
-202 -233 0
-202 -234 0
-202 -235 0
-202 -236 0
-202 -237 0
-202 -238 0
-202 -239 0
-202 -240 0
-202 -241 0
-202 -242 0
-202 -243 0
-202 -244 0
-202 -245 0
-202 -246 0
-202 -247 0
-202 -248 0
-202 -249 0
-202 -250 0
-202 -251 0
-202 -252 0
-202 -253 0
-202 -254 0
-202 -255 0
-202 -256 0
-203 -204 0
-203 -205 0
-203 -206 0
-203 -207 0
-203 -208 0
-203 -209 0
-203 -210 0
-203 -211 0
-203 -212 0
-203 -213 0
-203 -214 0
-203 -215 0
-203 -216 0
-203 -217 0
-203 -218 0
-203 -219 0
-203 -220 0
-203 -221 0
-203 -222 0
-203 -223 0
-203 -224 0
-203 -225 0
-203 -226 0
-203 -227 0
-203 -228 0
-203 -229 0
-203 -230 0
-203 -231 0
-203 -232 0
-203 -233 0
-203 -234 0
-203 -235 0
-203 -236 0
-203 -237 0
-203 -238 0
-203 -239 0
-203 -240 0
-203 -241 0
-203 -242 0
-203 -243 0
-203 -244 0
-203 -245 0
-203 -246 0
-203 -247 0
-203 -248 0
-203 -249 0
-203 -250 0
-203 -251 0
-203 -252 0
-203 -253 0
-203 -254 0
-203 -255 0
-203 -256 0
-204 -205 0
-204 -206 0
-204 -207 0
-204 -208 0
-204 -209 0
-204 -210 0
-204 -211 0
-204 -212 0
-204 -213 0
-204 -214 0
-204 -215 0
-204 -216 0
-204 -217 0
-204 -218 0
-204 -219 0
-204 -220 0
-204 -221 0
-204 -222 0
-204 -223 0
-204 -224 0
-204 -225 0
-204 -226 0
-204 -227 0
-204 -228 0
-204 -229 0
-204 -230 0
-204 -231 0
-204 -232 0
-204 -233 0
-204 -234 0
-204 -235 0
-204 -236 0
-204 -237 0
-204 -238 0
-204 -239 0
-204 -240 0
-204 -241 0
-204 -242 0
-204 -243 0
-204 -244 0
-204 -245 0
-204 -246 0
-204 -247 0
-204 -248 0
-204 -249 0
-204 -250 0
-204 -251 0
-204 -252 0
-204 -253 0
-204 -254 0
-204 -255 0
-204 -256 0
-205 -206 0
-205 -207 0
-205 -208 0
-205 -209 0
-205 -210 0
-205 -211 0
-205 -212 0
-205 -213 0
-205 -214 0
-205 -215 0
-205 -216 0
-205 -217 0
-205 -218 0
-205 -219 0
-205 -220 0
-205 -221 0
-205 -222 0
-205 -223 0
-205 -224 0
-205 -225 0
-205 -226 0
-205 -227 0
-205 -228 0
-205 -229 0
-205 -230 0
-205 -231 0
-205 -232 0
-205 -233 0
-205 -234 0
-205 -235 0
-205 -236 0
-205 -237 0
-205 -238 0
-205 -239 0
-205 -240 0
-205 -241 0
-205 -242 0
-205 -243 0
-205 -244 0
-205 -245 0
-205 -246 0
-205 -247 0
-205 -248 0
-205 -249 0
-205 -250 0
-205 -251 0
-205 -252 0
-205 -253 0
-205 -254 0
-205 -255 0
-205 -256 0
-206 -207 0
-206 -208 0
-206 -209 0
-206 -210 0
-206 -211 0
-206 -212 0
-206 -213 0
-206 -214 0
-206 -215 0
-206 -216 0
-206 -217 0
-206 -218 0
-206 -219 0
-206 -220 0
-206 -221 0
-206 -222 0
-206 -223 0
-206 -224 0
-206 -225 0
-206 -226 0
-206 -227 0
-206 -228 0
-206 -229 0
-206 -230 0
-206 -231 0
-206 -232 0
-206 -233 0
-206 -234 0
-206 -235 0
-206 -236 0
-206 -237 0
-206 -238 0
-206 -239 0
-206 -240 0
-206 -241 0
-206 -242 0
-206 -243 0
-206 -244 0
-206 -245 0
-206 -246 0
-206 -247 0
-206 -248 0
-206 -249 0
-206 -250 0
-206 -251 0
-206 -252 0
-206 -253 0
-206 -254 0
-206 -255 0
-206 -256 0
-207 -208 0
-207 -209 0
-207 -210 0
-207 -211 0
-207 -212 0
-207 -213 0
-207 -214 0
-207 -215 0
-207 -216 0
-207 -217 0
-207 -218 0
-207 -219 0
-207 -220 0
-207 -221 0
-207 -222 0
-207 -223 0
-207 -224 0
-207 -225 0
-207 -226 0
-207 -227 0
-207 -228 0
-207 -229 0
-207 -230 0
-207 -231 0
-207 -232 0
-207 -233 0
-207 -234 0
-207 -235 0
-207 -236 0
-207 -237 0
-207 -238 0
-207 -239 0
-207 -240 0
-207 -241 0
-207 -242 0
-207 -243 0
-207 -244 0
-207 -245 0
-207 -246 0
-207 -247 0
-207 -248 0
-207 -249 0
-207 -250 0
-207 -251 0
-207 -252 0
-207 -253 0
-207 -254 0
-207 -255 0
-207 -256 0
-208 -209 0
-208 -210 0
-208 -211 0
-208 -212 0
-208 -213 0
-208 -214 0
-208 -215 0
-208 -216 0
-208 -217 0
-208 -218 0
-208 -219 0
-208 -220 0
-208 -221 0
-208 -222 0
-208 -223 0
-208 -224 0
-208 -225 0
-208 -226 0
-208 -227 0
-208 -228 0
-208 -229 0
-208 -230 0
-208 -231 0
-208 -232 0
-208 -233 0
-208 -234 0
-208 -235 0
-208 -236 0
-208 -237 0
-208 -238 0
-208 -239 0
-208 -240 0
-208 -241 0
-208 -242 0
-208 -243 0
-208 -244 0
-208 -245 0
-208 -246 0
-208 -247 0
-208 -248 0
-208 -249 0
-208 -250 0
-208 -251 0
-208 -252 0
-208 -253 0
-208 -254 0
-208 -255 0
-208 -256 0
-209 -210 0
-209 -211 0
-209 -212 0
-209 -213 0
-209 -214 0
-209 -215 0
-209 -216 0
-209 -217 0
-209 -218 0
-209 -219 0
-209 -220 0
-209 -221 0
-209 -222 0
-209 -223 0
-209 -224 0
-209 -225 0
-209 -226 0
-209 -227 0
-209 -228 0
-209 -229 0
-209 -230 0
-209 -231 0
-209 -232 0
-209 -233 0
-209 -234 0
-209 -235 0
-209 -236 0
-209 -237 0
-209 -238 0
-209 -239 0
-209 -240 0
-209 -241 0
-209 -242 0
-209 -243 0
-209 -244 0
-209 -245 0
-209 -246 0
-209 -247 0
-209 -248 0
-209 -249 0
-209 -250 0
-209 -251 0
-209 -252 0
-209 -253 0
-209 -254 0
-209 -255 0
-209 -256 0
-210 -211 0
-210 -212 0
-210 -213 0
-210 -214 0
-210 -215 0
-210 -216 0
-210 -217 0
-210 -218 0
-210 -219 0
-210 -220 0
-210 -221 0
-210 -222 0
-210 -223 0
-210 -224 0
-210 -225 0
-210 -226 0
-210 -227 0
-210 -228 0
-210 -229 0
-210 -230 0
-210 -231 0
-210 -232 0
-210 -233 0
-210 -234 0
-210 -235 0
-210 -236 0
-210 -237 0
-210 -238 0
-210 -239 0
-210 -240 0
-210 -241 0
-210 -242 0
-210 -243 0
-210 -244 0
-210 -245 0
-210 -246 0
-210 -247 0
-210 -248 0
-210 -249 0
-210 -250 0
-210 -251 0
-210 -252 0
-210 -253 0
-210 -254 0
-210 -255 0
-210 -256 0
-211 -212 0
-211 -213 0
-211 -214 0
-211 -215 0
-211 -216 0
-211 -217 0
-211 -218 0
-211 -219 0
-211 -220 0
-211 -221 0
-211 -222 0
-211 -223 0
-211 -224 0
-211 -225 0
-211 -226 0
-211 -227 0
-211 -228 0
-211 -229 0
-211 -230 0
-211 -231 0
-211 -232 0
-211 -233 0
-211 -234 0
-211 -235 0
-211 -236 0
-211 -237 0
-211 -238 0
-211 -239 0
-211 -240 0
-211 -241 0
-211 -242 0
-211 -243 0
-211 -244 0
-211 -245 0
-211 -246 0
-211 -247 0
-211 -248 0
-211 -249 0
-211 -250 0
-211 -251 0
-211 -252 0
-211 -253 0
-211 -254 0
-211 -255 0
-211 -256 0
-212 -213 0
-212 -214 0
-212 -215 0
-212 -216 0
-212 -217 0
-212 -218 0
-212 -219 0
-212 -220 0
-212 -221 0
-212 -222 0
-212 -223 0
-212 -224 0
-212 -225 0
-212 -226 0
-212 -227 0
-212 -228 0
-212 -229 0
-212 -230 0
-212 -231 0
-212 -232 0
-212 -233 0
-212 -234 0
-212 -235 0
-212 -236 0
-212 -237 0
-212 -238 0
-212 -239 0
-212 -240 0
-212 -241 0
-212 -242 0
-212 -243 0
-212 -244 0
-212 -245 0
-212 -246 0
-212 -247 0
-212 -248 0
-212 -249 0
-212 -250 0
-212 -251 0
-212 -252 0
-212 -253 0
-212 -254 0
-212 -255 0
-212 -256 0
-213 -214 0
-213 -215 0
-213 -216 0
-213 -217 0
-213 -218 0
-213 -219 0
-213 -220 0
-213 -221 0
-213 -222 0
-213 -223 0
-213 -224 0
-213 -225 0
-213 -226 0
-213 -227 0
-213 -228 0
-213 -229 0
-213 -230 0
-213 -231 0
-213 -232 0
-213 -233 0
-213 -234 0
-213 -235 0
-213 -236 0
-213 -237 0
-213 -238 0
-213 -239 0
-213 -240 0
-213 -241 0
-213 -242 0
-213 -243 0
-213 -244 0
-213 -245 0
-213 -246 0
-213 -247 0
-213 -248 0
-213 -249 0
-213 -250 0
-213 -251 0
-213 -252 0
-213 -253 0
-213 -254 0
-213 -255 0
-213 -256 0
-214 -215 0
-214 -216 0
-214 -217 0
-214 -218 0
-214 -219 0
-214 -220 0
-214 -221 0
-214 -222 0
-214 -223 0
-214 -224 0
-214 -225 0
-214 -226 0
-214 -227 0
-214 -228 0
-214 -229 0
-214 -230 0
-214 -231 0
-214 -232 0
-214 -233 0
-214 -234 0
-214 -235 0
-214 -236 0
-214 -237 0
-214 -238 0
-214 -239 0
-214 -240 0
-214 -241 0
-214 -242 0
-214 -243 0
-214 -244 0
-214 -245 0
-214 -246 0
-214 -247 0
-214 -248 0
-214 -249 0
-214 -250 0
-214 -251 0
-214 -252 0
-214 -253 0
-214 -254 0
-214 -255 0
-214 -256 0
-215 -216 0
-215 -217 0
-215 -218 0
-215 -219 0
-215 -220 0
-215 -221 0
-215 -222 0
-215 -223 0
-215 -224 0
-215 -225 0
-215 -226 0
-215 -227 0
-215 -228 0
-215 -229 0
-215 -230 0
-215 -231 0
-215 -232 0
-215 -233 0
-215 -234 0
-215 -235 0
-215 -236 0
-215 -237 0
-215 -238 0
-215 -239 0
-215 -240 0
-215 -241 0
-215 -242 0
-215 -243 0
-215 -244 0
-215 -245 0
-215 -246 0
-215 -247 0
-215 -248 0
-215 -249 0
-215 -250 0
-215 -251 0
-215 -252 0
-215 -253 0
-215 -254 0
-215 -255 0
-215 -256 0
-216 -217 0
-216 -218 0
-216 -219 0
-216 -220 0
-216 -221 0
-216 -222 0
-216 -223 0
-216 -224 0
-216 -225 0
-216 -226 0
-216 -227 0
-216 -228 0
-216 -229 0
-216 -230 0
-216 -231 0
-216 -232 0
-216 -233 0
-216 -234 0
-216 -235 0
-216 -236 0
-216 -237 0
-216 -238 0
-216 -239 0
-216 -240 0
-216 -241 0
-216 -242 0
-216 -243 0
-216 -244 0
-216 -245 0
-216 -246 0
-216 -247 0
-216 -248 0
-216 -249 0
-216 -250 0
-216 -251 0
-216 -252 0
-216 -253 0
-216 -254 0
-216 -255 0
-216 -256 0
-217 -218 0
-217 -219 0
-217 -220 0
-217 -221 0
-217 -222 0
-217 -223 0
-217 -224 0
-217 -225 0
-217 -226 0
-217 -227 0
-217 -228 0
-217 -229 0
-217 -230 0
-217 -231 0
-217 -232 0
-217 -233 0
-217 -234 0
-217 -235 0
-217 -236 0
-217 -237 0
-217 -238 0
-217 -239 0
-217 -240 0
-217 -241 0
-217 -242 0
-217 -243 0
-217 -244 0
-217 -245 0
-217 -246 0
-217 -247 0
-217 -248 0
-217 -249 0
-217 -250 0
-217 -251 0
-217 -252 0
-217 -253 0
-217 -254 0
-217 -255 0
-217 -256 0
-218 -219 0
-218 -220 0
-218 -221 0
-218 -222 0
-218 -223 0
-218 -224 0
-218 -225 0
-218 -226 0
-218 -227 0
-218 -228 0
-218 -229 0
-218 -230 0
-218 -231 0
-218 -232 0
-218 -233 0
-218 -234 0
-218 -235 0
-218 -236 0
-218 -237 0
-218 -238 0
-218 -239 0
-218 -240 0
-218 -241 0
-218 -242 0
-218 -243 0
-218 -244 0
-218 -245 0
-218 -246 0
-218 -247 0
-218 -248 0
-218 -249 0
-218 -250 0
-218 -251 0
-218 -252 0
-218 -253 0
-218 -254 0
-218 -255 0
-218 -256 0
-219 -220 0
-219 -221 0
-219 -222 0
-219 -223 0
-219 -224 0
-219 -225 0
-219 -226 0
-219 -227 0
-219 -228 0
-219 -229 0
-219 -230 0
-219 -231 0
-219 -232 0
-219 -233 0
-219 -234 0
-219 -235 0
-219 -236 0
-219 -237 0
-219 -238 0
-219 -239 0
-219 -240 0
-219 -241 0
-219 -242 0
-219 -243 0
-219 -244 0
-219 -245 0
-219 -246 0
-219 -247 0
-219 -248 0
-219 -249 0
-219 -250 0
-219 -251 0
-219 -252 0
-219 -253 0
-219 -254 0
-219 -255 0
-219 -256 0
-220 -221 0
-220 -222 0
-220 -223 0
-220 -224 0
-220 -225 0
-220 -226 0
-220 -227 0
-220 -228 0
-220 -229 0
-220 -230 0
-220 -231 0
-220 -232 0
-220 -233 0
-220 -234 0
-220 -235 0
-220 -236 0
-220 -237 0
-220 -238 0
-220 -239 0
-220 -240 0
-220 -241 0
-220 -242 0
-220 -243 0
-220 -244 0
-220 -245 0
-220 -246 0
-220 -247 0
-220 -248 0
-220 -249 0
-220 -250 0
-220 -251 0
-220 -252 0
-220 -253 0
-220 -254 0
-220 -255 0
-220 -256 0
-221 -222 0
-221 -223 0
-221 -224 0
-221 -225 0
-221 -226 0
-221 -227 0
-221 -228 0
-221 -229 0
-221 -230 0
-221 -231 0
-221 -232 0
-221 -233 0
-221 -234 0
-221 -235 0
-221 -236 0
-221 -237 0
-221 -238 0
-221 -239 0
-221 -240 0
-221 -241 0
-221 -242 0
-221 -243 0
-221 -244 0
-221 -245 0
-221 -246 0
-221 -247 0
-221 -248 0
-221 -249 0
-221 -250 0
-221 -251 0
-221 -252 0
-221 -253 0
-221 -254 0
-221 -255 0
-221 -256 0
-222 -223 0
-222 -224 0
-222 -225 0
-222 -226 0
-222 -227 0
-222 -228 0
-222 -229 0
-222 -230 0
-222 -231 0
-222 -232 0
-222 -233 0
-222 -234 0
-222 -235 0
-222 -236 0
-222 -237 0
-222 -238 0
-222 -239 0
-222 -240 0
-222 -241 0
-222 -242 0
-222 -243 0
-222 -244 0
-222 -245 0
-222 -246 0
-222 -247 0
-222 -248 0
-222 -249 0
-222 -250 0
-222 -251 0
-222 -252 0
-222 -253 0
-222 -254 0
-222 -255 0
-222 -256 0
-223 -224 0
-223 -225 0
-223 -226 0
-223 -227 0
-223 -228 0
-223 -229 0
-223 -230 0
-223 -231 0
-223 -232 0
-223 -233 0
-223 -234 0
-223 -235 0
-223 -236 0
-223 -237 0
-223 -238 0
-223 -239 0
-223 -240 0
-223 -241 0
-223 -242 0
-223 -243 0
-223 -244 0
-223 -245 0
-223 -246 0
-223 -247 0
-223 -248 0
-223 -249 0
-223 -250 0
-223 -251 0
-223 -252 0
-223 -253 0
-223 -254 0
-223 -255 0
-223 -256 0
-224 -225 0
-224 -226 0
-224 -227 0
-224 -228 0
-224 -229 0
-224 -230 0
-224 -231 0
-224 -232 0
-224 -233 0
-224 -234 0
-224 -235 0
-224 -236 0
-224 -237 0
-224 -238 0
-224 -239 0
-224 -240 0
-224 -241 0
-224 -242 0
-224 -243 0
-224 -244 0
-224 -245 0
-224 -246 0
-224 -247 0
-224 -248 0
-224 -249 0
-224 -250 0
-224 -251 0
-224 -252 0
-224 -253 0
-224 -254 0
-224 -255 0
-224 -256 0
-225 -226 0
-225 -227 0
-225 -228 0
-225 -229 0
-225 -230 0
-225 -231 0
-225 -232 0
-225 -233 0
-225 -234 0
-225 -235 0
-225 -236 0
-225 -237 0
-225 -238 0
-225 -239 0
-225 -240 0
-225 -241 0
-225 -242 0
-225 -243 0
-225 -244 0
-225 -245 0
-225 -246 0
-225 -247 0
-225 -248 0
-225 -249 0
-225 -250 0
-225 -251 0
-225 -252 0
-225 -253 0
-225 -254 0
-225 -255 0
-225 -256 0
-226 -227 0
-226 -228 0
-226 -229 0
-226 -230 0
-226 -231 0
-226 -232 0
-226 -233 0
-226 -234 0
-226 -235 0
-226 -236 0
-226 -237 0
-226 -238 0
-226 -239 0
-226 -240 0
-226 -241 0
-226 -242 0
-226 -243 0
-226 -244 0
-226 -245 0
-226 -246 0
-226 -247 0
-226 -248 0
-226 -249 0
-226 -250 0
-226 -251 0
-226 -252 0
-226 -253 0
-226 -254 0
-226 -255 0
-226 -256 0
-227 -228 0
-227 -229 0
-227 -230 0
-227 -231 0
-227 -232 0
-227 -233 0
-227 -234 0
-227 -235 0
-227 -236 0
-227 -237 0
-227 -238 0
-227 -239 0
-227 -240 0
-227 -241 0
-227 -242 0
-227 -243 0
-227 -244 0
-227 -245 0
-227 -246 0
-227 -247 0
-227 -248 0
-227 -249 0
-227 -250 0
-227 -251 0
-227 -252 0
-227 -253 0
-227 -254 0
-227 -255 0
-227 -256 0
-228 -229 0
-228 -230 0
-228 -231 0
-228 -232 0
-228 -233 0
-228 -234 0
-228 -235 0
-228 -236 0
-228 -237 0
-228 -238 0
-228 -239 0
-228 -240 0
-228 -241 0
-228 -242 0
-228 -243 0
-228 -244 0
-228 -245 0
-228 -246 0
-228 -247 0
-228 -248 0
-228 -249 0
-228 -250 0
-228 -251 0
-228 -252 0
-228 -253 0
-228 -254 0
-228 -255 0
-228 -256 0
-229 -230 0
-229 -231 0
-229 -232 0
-229 -233 0
-229 -234 0
-229 -235 0
-229 -236 0
-229 -237 0
-229 -238 0
-229 -239 0
-229 -240 0
-229 -241 0
-229 -242 0
-229 -243 0
-229 -244 0
-229 -245 0
-229 -246 0
-229 -247 0
-229 -248 0
-229 -249 0
-229 -250 0
-229 -251 0
-229 -252 0
-229 -253 0
-229 -254 0
-229 -255 0
-229 -256 0
-230 -231 0
-230 -232 0
-230 -233 0
-230 -234 0
-230 -235 0
-230 -236 0
-230 -237 0
-230 -238 0
-230 -239 0
-230 -240 0
-230 -241 0
-230 -242 0
-230 -243 0
-230 -244 0
-230 -245 0
-230 -246 0
-230 -247 0
-230 -248 0
-230 -249 0
-230 -250 0
-230 -251 0
-230 -252 0
-230 -253 0
-230 -254 0
-230 -255 0
-230 -256 0
-231 -232 0
-231 -233 0
-231 -234 0
-231 -235 0
-231 -236 0
-231 -237 0
-231 -238 0
-231 -239 0
-231 -240 0
-231 -241 0
-231 -242 0
-231 -243 0
-231 -244 0
-231 -245 0
-231 -246 0
-231 -247 0
-231 -248 0
-231 -249 0
-231 -250 0
-231 -251 0
-231 -252 0
-231 -253 0
-231 -254 0
-231 -255 0
-231 -256 0
-232 -233 0
-232 -234 0
-232 -235 0
-232 -236 0
-232 -237 0
-232 -238 0
-232 -239 0
-232 -240 0
-232 -241 0
-232 -242 0
-232 -243 0
-232 -244 0
-232 -245 0
-232 -246 0
-232 -247 0
-232 -248 0
-232 -249 0
-232 -250 0
-232 -251 0
-232 -252 0
-232 -253 0
-232 -254 0
-232 -255 0
-232 -256 0
-233 -234 0
-233 -235 0
-233 -236 0
-233 -237 0
-233 -238 0
-233 -239 0
-233 -240 0
-233 -241 0
-233 -242 0
-233 -243 0
-233 -244 0
-233 -245 0
-233 -246 0
-233 -247 0
-233 -248 0
-233 -249 0
-233 -250 0
-233 -251 0
-233 -252 0
-233 -253 0
-233 -254 0
-233 -255 0
-233 -256 0
-234 -235 0
-234 -236 0
-234 -237 0
-234 -238 0
-234 -239 0
-234 -240 0
-234 -241 0
-234 -242 0
-234 -243 0
-234 -244 0
-234 -245 0
-234 -246 0
-234 -247 0
-234 -248 0
-234 -249 0
-234 -250 0
-234 -251 0
-234 -252 0
-234 -253 0
-234 -254 0
-234 -255 0
-234 -256 0
-235 -236 0
-235 -237 0
-235 -238 0
-235 -239 0
-235 -240 0
-235 -241 0
-235 -242 0
-235 -243 0
-235 -244 0
-235 -245 0
-235 -246 0
-235 -247 0
-235 -248 0
-235 -249 0
-235 -250 0
-235 -251 0
-235 -252 0
-235 -253 0
-235 -254 0
-235 -255 0
-235 -256 0
-236 -237 0
-236 -238 0
-236 -239 0
-236 -240 0
-236 -241 0
-236 -242 0
-236 -243 0
-236 -244 0
-236 -245 0
-236 -246 0
-236 -247 0
-236 -248 0
-236 -249 0
-236 -250 0
-236 -251 0
-236 -252 0
-236 -253 0
-236 -254 0
-236 -255 0
-236 -256 0
-237 -238 0
-237 -239 0
-237 -240 0
-237 -241 0
-237 -242 0
-237 -243 0
-237 -244 0
-237 -245 0
-237 -246 0
-237 -247 0
-237 -248 0
-237 -249 0
-237 -250 0
-237 -251 0
-237 -252 0
-237 -253 0
-237 -254 0
-237 -255 0
-237 -256 0
-238 -239 0
-238 -240 0
-238 -241 0
-238 -242 0
-238 -243 0
-238 -244 0
-238 -245 0
-238 -246 0
-238 -247 0
-238 -248 0
-238 -249 0
-238 -250 0
-238 -251 0
-238 -252 0
-238 -253 0
-238 -254 0
-238 -255 0
-238 -256 0
-239 -240 0
-239 -241 0
-239 -242 0
-239 -243 0
-239 -244 0
-239 -245 0
-239 -246 0
-239 -247 0
-239 -248 0
-239 -249 0
-239 -250 0
-239 -251 0
-239 -252 0
-239 -253 0
-239 -254 0
-239 -255 0
-239 -256 0
-240 -241 0
-240 -242 0
-240 -243 0
-240 -244 0
-240 -245 0
-240 -246 0
-240 -247 0
-240 -248 0
-240 -249 0
-240 -250 0
-240 -251 0
-240 -252 0
-240 -253 0
-240 -254 0
-240 -255 0
-240 -256 0
-241 -242 0
-241 -243 0
-241 -244 0
-241 -245 0
-241 -246 0
-241 -247 0
-241 -248 0
-241 -249 0
-241 -250 0
-241 -251 0
-241 -252 0
-241 -253 0
-241 -254 0
-241 -255 0
-241 -256 0
-242 -243 0
-242 -244 0
-242 -245 0
-242 -246 0
-242 -247 0
-242 -248 0
-242 -249 0
-242 -250 0
-242 -251 0
-242 -252 0
-242 -253 0
-242 -254 0
-242 -255 0
-242 -256 0
-243 -244 0
-243 -245 0
-243 -246 0
-243 -247 0
-243 -248 0
-243 -249 0
-243 -250 0
-243 -251 0
-243 -252 0
-243 -253 0
-243 -254 0
-243 -255 0
-243 -256 0
-244 -245 0
-244 -246 0
-244 -247 0
-244 -248 0
-244 -249 0
-244 -250 0
-244 -251 0
-244 -252 0
-244 -253 0
-244 -254 0
-244 -255 0
-244 -256 0
-245 -246 0
-245 -247 0
-245 -248 0
-245 -249 0
-245 -250 0
-245 -251 0
-245 -252 0
-245 -253 0
-245 -254 0
-245 -255 0
-245 -256 0
-246 -247 0
-246 -248 0
-246 -249 0
-246 -250 0
-246 -251 0
-246 -252 0
-246 -253 0
-246 -254 0
-246 -255 0
-246 -256 0
-247 -248 0
-247 -249 0
-247 -250 0
-247 -251 0
-247 -252 0
-247 -253 0
-247 -254 0
-247 -255 0
-247 -256 0
-248 -249 0
-248 -250 0
-248 -251 0
-248 -252 0
-248 -253 0
-248 -254 0
-248 -255 0
-248 -256 0
-249 -250 0
-249 -251 0
-249 -252 0
-249 -253 0
-249 -254 0
-249 -255 0
-249 -256 0
-250 -251 0
-250 -252 0
-250 -253 0
-250 -254 0
-250 -255 0
-250 -256 0
-251 -252 0
-251 -253 0
-251 -254 0
-251 -255 0
-251 -256 0
-252 -253 0
-252 -254 0
-252 -255 0
-252 -256 0
-253 -254 0
-253 -255 0
-253 -256 0
-254 -255 0
-254 -256 0
-255 -256 0
257 258 259 260 261 262 263 264 265 266 267 268 269 270 271 272 273 274 275 276 277 278 279 280 281 282 283 284 285 286 287 288 289 290 291 292 293 294 295 296 297 298 299 300 301 302 303 304 305 306 307 308 309 310 311 312 313 314 315 316 317 318 319 320 321 322 323 324 325 326 327 328 329 330 331 332 333 334 335 336 337 338 339 340 341 342 343 344 345 346 347 348 349 350 351 352 353 354 355 356 357 358 359 360 361 362 363 364 365 366 367 368 369 370 371 372 373 374 375 376 377 378 379 380 381 382 383 384 0
-257 -258 0
-257 -259 0
-257 -260 0
-257 -261 0
-257 -262 0
-257 -263 0
-257 -264 0
-257 -265 0
-257 -266 0
-257 -267 0
-257 -268 0
-257 -269 0
-257 -270 0
-257 -271 0
-257 -272 0
-257 -273 0
-257 -274 0
-257 -275 0
-257 -276 0
-257 -277 0
-257 -278 0
-257 -279 0
-257 -280 0
-257 -281 0
-257 -282 0
-257 -283 0
-257 -284 0
-257 -285 0
-257 -286 0
-257 -287 0
-257 -288 0
-257 -289 0
-257 -290 0
-257 -291 0
-257 -292 0
-257 -293 0
-257 -294 0
-257 -295 0
-257 -296 0
-257 -297 0
-257 -298 0
-257 -299 0
-257 -300 0
-257 -301 0
-257 -302 0
-257 -303 0
-257 -304 0
-257 -305 0
-257 -306 0
-257 -307 0
-257 -308 0
-257 -309 0
-257 -310 0
-257 -311 0
-257 -312 0
-257 -313 0
-257 -314 0
-257 -315 0
-257 -316 0
-257 -317 0
-257 -318 0
-257 -319 0
-257 -320 0
-257 -321 0
-257 -322 0
-257 -323 0
-257 -324 0
-257 -325 0
-257 -326 0
-257 -327 0
-257 -328 0
-257 -329 0
-257 -330 0
-257 -331 0
-257 -332 0
-257 -333 0
-257 -334 0
-257 -335 0
-257 -336 0
-257 -337 0
-257 -338 0
-257 -339 0
-257 -340 0
-257 -341 0
-257 -342 0
-257 -343 0
-257 -344 0
-257 -345 0
-257 -346 0
-257 -347 0
-257 -348 0
-257 -349 0
-257 -350 0
-257 -351 0
-257 -352 0
-257 -353 0
-257 -354 0
-257 -355 0
-257 -356 0
-257 -357 0
-257 -358 0
-257 -359 0
-257 -360 0
-257 -361 0
-257 -362 0
-257 -363 0
-257 -364 0
-257 -365 0
-257 -366 0
-257 -367 0
-257 -368 0
-257 -369 0
-257 -370 0
-257 -371 0
-257 -372 0
-257 -373 0
-257 -374 0
-257 -375 0
-257 -376 0
-257 -377 0
-257 -378 0
-257 -379 0
-257 -380 0
-257 -381 0
-257 -382 0
-257 -383 0
-257 -384 0
-258 -259 0
-258 -260 0
-258 -261 0
-258 -262 0
-258 -263 0
-258 -264 0
-258 -265 0
-258 -266 0
-258 -267 0
-258 -268 0
-258 -269 0
-258 -270 0
-258 -271 0
-258 -272 0
-258 -273 0
-258 -274 0
-258 -275 0
-258 -276 0
-258 -277 0
-258 -278 0
-258 -279 0
-258 -280 0
-258 -281 0
-258 -282 0
-258 -283 0
-258 -284 0
-258 -285 0
-258 -286 0
-258 -287 0
-258 -288 0
-258 -289 0
-258 -290 0
-258 -291 0
-258 -292 0
-258 -293 0
-258 -294 0
-258 -295 0
-258 -296 0
-258 -297 0
-258 -298 0
-258 -299 0
-258 -300 0
-258 -301 0
-258 -302 0
-258 -303 0
-258 -304 0
-258 -305 0
-258 -306 0
-258 -307 0
-258 -308 0
-258 -309 0
-258 -310 0
-258 -311 0
-258 -312 0
-258 -313 0
-258 -314 0
-258 -315 0
-258 -316 0
-258 -317 0
-258 -318 0
-258 -319 0
-258 -320 0
-258 -321 0
-258 -322 0
-258 -323 0
-258 -324 0
-258 -325 0
-258 -326 0
-258 -327 0
-258 -328 0
-258 -329 0
-258 -330 0
-258 -331 0
-258 -332 0
-258 -333 0
-258 -334 0
-258 -335 0
-258 -336 0
-258 -337 0
-258 -338 0
-258 -339 0
-258 -340 0
-258 -341 0
-258 -342 0
-258 -343 0
-258 -344 0
-258 -345 0
-258 -346 0
-258 -347 0
-258 -348 0
-258 -349 0
-258 -350 0
-258 -351 0
-258 -352 0
-258 -353 0
-258 -354 0
-258 -355 0
-258 -356 0
-258 -357 0
-258 -358 0
-258 -359 0
-258 -360 0
-258 -361 0
-258 -362 0
-258 -363 0
-258 -364 0
-258 -365 0
-258 -366 0
-258 -367 0
-258 -368 0
-258 -369 0
-258 -370 0
-258 -371 0
-258 -372 0
-258 -373 0
-258 -374 0
-258 -375 0
-258 -376 0
-258 -377 0
-258 -378 0
-258 -379 0
-258 -380 0
-258 -381 0
-258 -382 0
-258 -383 0
-258 -384 0
-259 -260 0
-259 -261 0
-259 -262 0
-259 -263 0
-259 -264 0
-259 -265 0
-259 -266 0
-259 -267 0
-259 -268 0
-259 -269 0
-259 -270 0
-259 -271 0
-259 -272 0
-259 -273 0
-259 -274 0
-259 -275 0
-259 -276 0
-259 -277 0
-259 -278 0
-259 -279 0
-259 -280 0
-259 -281 0
-259 -282 0
-259 -283 0
-259 -284 0
-259 -285 0
-259 -286 0
-259 -287 0
-259 -288 0
-259 -289 0
-259 -290 0
-259 -291 0
-259 -292 0
-259 -293 0
-259 -294 0
-259 -295 0
-259 -296 0
-259 -297 0
-259 -298 0
-259 -299 0
-259 -300 0
-259 -301 0
-259 -302 0
-259 -303 0
-259 -304 0
-259 -305 0
-259 -306 0
-259 -307 0
-259 -308 0
-259 -309 0
-259 -310 0
-259 -311 0
-259 -312 0
-259 -313 0
-259 -314 0
-259 -315 0
-259 -316 0
-259 -317 0
-259 -318 0
-259 -319 0
-259 -320 0
-259 -321 0
-259 -322 0
-259 -323 0
-259 -324 0
-259 -325 0
-259 -326 0
-259 -327 0
-259 -328 0
-259 -329 0
-259 -330 0
-259 -331 0
-259 -332 0
-259 -333 0
-259 -334 0
-259 -335 0
-259 -336 0
-259 -337 0
-259 -338 0
-259 -339 0
-259 -340 0
-259 -341 0
-259 -342 0
-259 -343 0
-259 -344 0
-259 -345 0
-259 -346 0
-259 -347 0
-259 -348 0
-259 -349 0
-259 -350 0
-259 -351 0
-259 -352 0
-259 -353 0
-259 -354 0
-259 -355 0
-259 -356 0
-259 -357 0
-259 -358 0
-259 -359 0
-259 -360 0
-259 -361 0
-259 -362 0
-259 -363 0
-259 -364 0
-259 -365 0
-259 -366 0
-259 -367 0
-259 -368 0
-259 -369 0
-259 -370 0
-259 -371 0
-259 -372 0
-259 -373 0
-259 -374 0
-259 -375 0
-259 -376 0
-259 -377 0
-259 -378 0
-259 -379 0
-259 -380 0
-259 -381 0
-259 -382 0
-259 -383 0
-259 -384 0
-260 -261 0
-260 -262 0
-260 -263 0
-260 -264 0
-260 -265 0
-260 -266 0
-260 -267 0
-260 -268 0
-260 -269 0
-260 -270 0
-260 -271 0
-260 -272 0
-260 -273 0
-260 -274 0
-260 -275 0
-260 -276 0
-260 -277 0
-260 -278 0
-260 -279 0
-260 -280 0
-260 -281 0
-260 -282 0
-260 -283 0
-260 -284 0
-260 -285 0
-260 -286 0
-260 -287 0
-260 -288 0
-260 -289 0
-260 -290 0
-260 -291 0
-260 -292 0
-260 -293 0
-260 -294 0
-260 -295 0
-260 -296 0
-260 -297 0
-260 -298 0
-260 -299 0
-260 -300 0
-260 -301 0
-260 -302 0
-260 -303 0
-260 -304 0
-260 -305 0
-260 -306 0
-260 -307 0
-260 -308 0
-260 -309 0
-260 -310 0
-260 -311 0
-260 -312 0
-260 -313 0
-260 -314 0
-260 -315 0
-260 -316 0
-260 -317 0
-260 -318 0
-260 -319 0
-260 -320 0
-260 -321 0
-260 -322 0
-260 -323 0
-260 -324 0
-260 -325 0
-260 -326 0
-260 -327 0
-260 -328 0
-260 -329 0
-260 -330 0
-260 -331 0
-260 -332 0
-260 -333 0
-260 -334 0
-260 -335 0
-260 -336 0
-260 -337 0
-260 -338 0
-260 -339 0
-260 -340 0
-260 -341 0
-260 -342 0
-260 -343 0
-260 -344 0
-260 -345 0
-260 -346 0
-260 -347 0
-260 -348 0
-260 -349 0
-260 -350 0
-260 -351 0
-260 -352 0
-260 -353 0
-260 -354 0
-260 -355 0
-260 -356 0
-260 -357 0
-260 -358 0
-260 -359 0
-260 -360 0
-260 -361 0
-260 -362 0
-260 -363 0
-260 -364 0
-260 -365 0
-260 -366 0
-260 -367 0
-260 -368 0
-260 -369 0
-260 -370 0
-260 -371 0
-260 -372 0
-260 -373 0
-260 -374 0
-260 -375 0
-260 -376 0
-260 -377 0
-260 -378 0
-260 -379 0
-260 -380 0
-260 -381 0
-260 -382 0
-260 -383 0
-260 -384 0
-261 -262 0
-261 -263 0
-261 -264 0
-261 -265 0
-261 -266 0
-261 -267 0
-261 -268 0
-261 -269 0
-261 -270 0
-261 -271 0
-261 -272 0
-261 -273 0
-261 -274 0
-261 -275 0
-261 -276 0
-261 -277 0
-261 -278 0
-261 -279 0
-261 -280 0
-261 -281 0
-261 -282 0
-261 -283 0
-261 -284 0
-261 -285 0
-261 -286 0
-261 -287 0
-261 -288 0
-261 -289 0
-261 -290 0
-261 -291 0
-261 -292 0
-261 -293 0
-261 -294 0
-261 -295 0
-261 -296 0
-261 -297 0
-261 -298 0
-261 -299 0
-261 -300 0
-261 -301 0
-261 -302 0
-261 -303 0
-261 -304 0
-261 -305 0
-261 -306 0
-261 -307 0
-261 -308 0
-261 -309 0
-261 -310 0
-261 -311 0
-261 -312 0
-261 -313 0
-261 -314 0
-261 -315 0
-261 -316 0
-261 -317 0
-261 -318 0
-261 -319 0
-261 -320 0
-261 -321 0
-261 -322 0
-261 -323 0
-261 -324 0
-261 -325 0
-261 -326 0
-261 -327 0
-261 -328 0
-261 -329 0
-261 -330 0
-261 -331 0
-261 -332 0
-261 -333 0
-261 -334 0
-261 -335 0
-261 -336 0
-261 -337 0
-261 -338 0
-261 -339 0
-261 -340 0
-261 -341 0
-261 -342 0
-261 -343 0
-261 -344 0
-261 -345 0
-261 -346 0
-261 -347 0
-261 -348 0
-261 -349 0
-261 -350 0
-261 -351 0
-261 -352 0
-261 -353 0
-261 -354 0
-261 -355 0
-261 -356 0
-261 -357 0
-261 -358 0
-261 -359 0
-261 -360 0
-261 -361 0
-261 -362 0
-261 -363 0
-261 -364 0
-261 -365 0
-261 -366 0
-261 -367 0
-261 -368 0
-261 -369 0
-261 -370 0
-261 -371 0
-261 -372 0
-261 -373 0
-261 -374 0
-261 -375 0
-261 -376 0
-261 -377 0
-261 -378 0
-261 -379 0
-261 -380 0
-261 -381 0
-261 -382 0
-261 -383 0
-261 -384 0
-262 -263 0
-262 -264 0
-262 -265 0
-262 -266 0
-262 -267 0
-262 -268 0
-262 -269 0
-262 -270 0
-262 -271 0
-262 -272 0
-262 -273 0
-262 -274 0
-262 -275 0
-262 -276 0
-262 -277 0
-262 -278 0
-262 -279 0
-262 -280 0
-262 -281 0
-262 -282 0
-262 -283 0
-262 -284 0
-262 -285 0
-262 -286 0
-262 -287 0
-262 -288 0
-262 -289 0
-262 -290 0
-262 -291 0
-262 -292 0
-262 -293 0
-262 -294 0
-262 -295 0
-262 -296 0
-262 -297 0
-262 -298 0
-262 -299 0
-262 -300 0
-262 -301 0
-262 -302 0
-262 -303 0
-262 -304 0
-262 -305 0
-262 -306 0
-262 -307 0
-262 -308 0
-262 -309 0
-262 -310 0
-262 -311 0
-262 -312 0
-262 -313 0
-262 -314 0
-262 -315 0
-262 -316 0
-262 -317 0
-262 -318 0
-262 -319 0
-262 -320 0
-262 -321 0
-262 -322 0
-262 -323 0
-262 -324 0
-262 -325 0
-262 -326 0
-262 -327 0
-262 -328 0
-262 -329 0
-262 -330 0
-262 -331 0
-262 -332 0
-262 -333 0
-262 -334 0
-262 -335 0
-262 -336 0
-262 -337 0
-262 -338 0
-262 -339 0
-262 -340 0
-262 -341 0
-262 -342 0
-262 -343 0
-262 -344 0
-262 -345 0
-262 -346 0
-262 -347 0
-262 -348 0
-262 -349 0
-262 -350 0
-262 -351 0
-262 -352 0
-262 -353 0
-262 -354 0
-262 -355 0
-262 -356 0
-262 -357 0
-262 -358 0
-262 -359 0
-262 -360 0
-262 -361 0
-262 -362 0
-262 -363 0
-262 -364 0
-262 -365 0
-262 -366 0
-262 -367 0
-262 -368 0
-262 -369 0
-262 -370 0
-262 -371 0
-262 -372 0
-262 -373 0
-262 -374 0
-262 -375 0
-262 -376 0
-262 -377 0
-262 -378 0
-262 -379 0
-262 -380 0
-262 -381 0
-262 -382 0
-262 -383 0
-262 -384 0
-263 -264 0
-263 -265 0
-263 -266 0
-263 -267 0
-263 -268 0
-263 -269 0
-263 -270 0
-263 -271 0
-263 -272 0
-263 -273 0
-263 -274 0
-263 -275 0
-263 -276 0
-263 -277 0
-263 -278 0
-263 -279 0
-263 -280 0
-263 -281 0
-263 -282 0
-263 -283 0
-263 -284 0
-263 -285 0
-263 -286 0
-263 -287 0
-263 -288 0
-263 -289 0
-263 -290 0
-263 -291 0
-263 -292 0
-263 -293 0
-263 -294 0
-263 -295 0
-263 -296 0
-263 -297 0
-263 -298 0
-263 -299 0
-263 -300 0
-263 -301 0
-263 -302 0
-263 -303 0
-263 -304 0
-263 -305 0
-263 -306 0
-263 -307 0
-263 -308 0
-263 -309 0
-263 -310 0
-263 -311 0
-263 -312 0
-263 -313 0
-263 -314 0
-263 -315 0
-263 -316 0
-263 -317 0
-263 -318 0
-263 -319 0
-263 -320 0
-263 -321 0
-263 -322 0
-263 -323 0
-263 -324 0
-263 -325 0
-263 -326 0
-263 -327 0
-263 -328 0
-263 -329 0
-263 -330 0
-263 -331 0
-263 -332 0
-263 -333 0
-263 -334 0
-263 -335 0
-263 -336 0
-263 -337 0
-263 -338 0
-263 -339 0
-263 -340 0
-263 -341 0
-263 -342 0
-263 -343 0
-263 -344 0
-263 -345 0
-263 -346 0
-263 -347 0
-263 -348 0
-263 -349 0
-263 -350 0
-263 -351 0
-263 -352 0
-263 -353 0
-263 -354 0
-263 -355 0
-263 -356 0
-263 -357 0
-263 -358 0
-263 -359 0
-263 -360 0
-263 -361 0
-263 -362 0
-263 -363 0
-263 -364 0
-263 -365 0
-263 -366 0
-263 -367 0
-263 -368 0
-263 -369 0
-263 -370 0
-263 -371 0
-263 -372 0
-263 -373 0
-263 -374 0
-263 -375 0
-263 -376 0
-263 -377 0
-263 -378 0
-263 -379 0
-263 -380 0
-263 -381 0
-263 -382 0
-263 -383 0
-263 -384 0
-264 -265 0
-264 -266 0
-264 -267 0
-264 -268 0
-264 -269 0
-264 -270 0
-264 -271 0
-264 -272 0
-264 -273 0
-264 -274 0
-264 -275 0
-264 -276 0
-264 -277 0
-264 -278 0
-264 -279 0
-264 -280 0
-264 -281 0
-264 -282 0
-264 -283 0
-264 -284 0
-264 -285 0
-264 -286 0
-264 -287 0
-264 -288 0
-264 -289 0
-264 -290 0
-264 -291 0
-264 -292 0
-264 -293 0
-264 -294 0
-264 -295 0
-264 -296 0
-264 -297 0
-264 -298 0
-264 -299 0
-264 -300 0
-264 -301 0
-264 -302 0
-264 -303 0
-264 -304 0
-264 -305 0
-264 -306 0
-264 -307 0
-264 -308 0
-264 -309 0
-264 -310 0
-264 -311 0
-264 -312 0
-264 -313 0
-264 -314 0
-264 -315 0
-264 -316 0
-264 -317 0
-264 -318 0
-264 -319 0
-264 -320 0
-264 -321 0
-264 -322 0
-264 -323 0
-264 -324 0
-264 -325 0
-264 -326 0
-264 -327 0
-264 -328 0
-264 -329 0
-264 -330 0
-264 -331 0
-264 -332 0
-264 -333 0
-264 -334 0
-264 -335 0
-264 -336 0
-264 -337 0
-264 -338 0
-264 -339 0
-264 -340 0
-264 -341 0
-264 -342 0
-264 -343 0
-264 -344 0
-264 -345 0
-264 -346 0
-264 -347 0
-264 -348 0
-264 -349 0
-264 -350 0
-264 -351 0
-264 -352 0
-264 -353 0
-264 -354 0
-264 -355 0
-264 -356 0
-264 -357 0
-264 -358 0
-264 -359 0
-264 -360 0
-264 -361 0
-264 -362 0
-264 -363 0
-264 -364 0
-264 -365 0
-264 -366 0
-264 -367 0
-264 -368 0
-264 -369 0
-264 -370 0
-264 -371 0
-264 -372 0
-264 -373 0
-264 -374 0
-264 -375 0
-264 -376 0
-264 -377 0
-264 -378 0
-264 -379 0
-264 -380 0
-264 -381 0
-264 -382 0
-264 -383 0
-264 -384 0
-265 -266 0
-265 -267 0
-265 -268 0
-265 -269 0
-265 -270 0
-265 -271 0
-265 -272 0
-265 -273 0
-265 -274 0
-265 -275 0
-265 -276 0
-265 -277 0
-265 -278 0
-265 -279 0
-265 -280 0
-265 -281 0
-265 -282 0
-265 -283 0
-265 -284 0
-265 -285 0
-265 -286 0
-265 -287 0
-265 -288 0
-265 -289 0
-265 -290 0
-265 -291 0
-265 -292 0
-265 -293 0
-265 -294 0
-265 -295 0
-265 -296 0
-265 -297 0
-265 -298 0
-265 -299 0
-265 -300 0
-265 -301 0
-265 -302 0
-265 -303 0
-265 -304 0
-265 -305 0
-265 -306 0
-265 -307 0
-265 -308 0
-265 -309 0
-265 -310 0
-265 -311 0
-265 -312 0
-265 -313 0
-265 -314 0
-265 -315 0
-265 -316 0
-265 -317 0
-265 -318 0
-265 -319 0
-265 -320 0
-265 -321 0
-265 -322 0
-265 -323 0
-265 -324 0
-265 -325 0
-265 -326 0
-265 -327 0
-265 -328 0
-265 -329 0
-265 -330 0
-265 -331 0
-265 -332 0
-265 -333 0
-265 -334 0
-265 -335 0
-265 -336 0
-265 -337 0
-265 -338 0
-265 -339 0
-265 -340 0
-265 -341 0
-265 -342 0
-265 -343 0
-265 -344 0
-265 -345 0
-265 -346 0
-265 -347 0
-265 -348 0
-265 -349 0
-265 -350 0
-265 -351 0
-265 -352 0
-265 -353 0
-265 -354 0
-265 -355 0
-265 -356 0
-265 -357 0
-265 -358 0
-265 -359 0
-265 -360 0
-265 -361 0
-265 -362 0
-265 -363 0
-265 -364 0
-265 -365 0
-265 -366 0
-265 -367 0
-265 -368 0
-265 -369 0
-265 -370 0
-265 -371 0
-265 -372 0
-265 -373 0
-265 -374 0
-265 -375 0
-265 -376 0
-265 -377 0
-265 -378 0
-265 -379 0
-265 -380 0
-265 -381 0
-265 -382 0
-265 -383 0
-265 -384 0
-266 -267 0
-266 -268 0
-266 -269 0
-266 -270 0
-266 -271 0
-266 -272 0
-266 -273 0
-266 -274 0
-266 -275 0
-266 -276 0
-266 -277 0
-266 -278 0
-266 -279 0
-266 -280 0
-266 -281 0
-266 -282 0
-266 -283 0
-266 -284 0
-266 -285 0
-266 -286 0
-266 -287 0
-266 -288 0
-266 -289 0
-266 -290 0
-266 -291 0
-266 -292 0
-266 -293 0
-266 -294 0
-266 -295 0
-266 -296 0
-266 -297 0
-266 -298 0
-266 -299 0
-266 -300 0
-266 -301 0
-266 -302 0
-266 -303 0
-266 -304 0
-266 -305 0
-266 -306 0
-266 -307 0
-266 -308 0
-266 -309 0
-266 -310 0
-266 -311 0
-266 -312 0
-266 -313 0
-266 -314 0
-266 -315 0
-266 -316 0
-266 -317 0
-266 -318 0
-266 -319 0
-266 -320 0
-266 -321 0
-266 -322 0
-266 -323 0
-266 -324 0
-266 -325 0
-266 -326 0
-266 -327 0
-266 -328 0
-266 -329 0
-266 -330 0
-266 -331 0
-266 -332 0
-266 -333 0
-266 -334 0
-266 -335 0
-266 -336 0
-266 -337 0
-266 -338 0
-266 -339 0
-266 -340 0
-266 -341 0
-266 -342 0
-266 -343 0
-266 -344 0
-266 -345 0
-266 -346 0
-266 -347 0
-266 -348 0
-266 -349 0
-266 -350 0
-266 -351 0
-266 -352 0
-266 -353 0
-266 -354 0
-266 -355 0
-266 -356 0
-266 -357 0
-266 -358 0
-266 -359 0
-266 -360 0
-266 -361 0
-266 -362 0
-266 -363 0
-266 -364 0
-266 -365 0
-266 -366 0
-266 -367 0
-266 -368 0
-266 -369 0
-266 -370 0
-266 -371 0
-266 -372 0
-266 -373 0
-266 -374 0
-266 -375 0
-266 -376 0
-266 -377 0
-266 -378 0
-266 -379 0
-266 -380 0
-266 -381 0
-266 -382 0
-266 -383 0
-266 -384 0
-267 -268 0
-267 -269 0
-267 -270 0
-267 -271 0
-267 -272 0
-267 -273 0
-267 -274 0
-267 -275 0
-267 -276 0
-267 -277 0
-267 -278 0
-267 -279 0
-267 -280 0
-267 -281 0
-267 -282 0
-267 -283 0
-267 -284 0
-267 -285 0
-267 -286 0
-267 -287 0
-267 -288 0
-267 -289 0
-267 -290 0
-267 -291 0
-267 -292 0
-267 -293 0
-267 -294 0
-267 -295 0
-267 -296 0
-267 -297 0
-267 -298 0
-267 -299 0
-267 -300 0
-267 -301 0
-267 -302 0
-267 -303 0
-267 -304 0
-267 -305 0
-267 -306 0
-267 -307 0
-267 -308 0
-267 -309 0
-267 -310 0
-267 -311 0
-267 -312 0
-267 -313 0
-267 -314 0
-267 -315 0
-267 -316 0
-267 -317 0
-267 -318 0
-267 -319 0
-267 -320 0
-267 -321 0
-267 -322 0
-267 -323 0
-267 -324 0
-267 -325 0
-267 -326 0
-267 -327 0
-267 -328 0
-267 -329 0
-267 -330 0
-267 -331 0
-267 -332 0
-267 -333 0
-267 -334 0
-267 -335 0
-267 -336 0
-267 -337 0
-267 -338 0
-267 -339 0
-267 -340 0
-267 -341 0
-267 -342 0
-267 -343 0
-267 -344 0
-267 -345 0
-267 -346 0
-267 -347 0
-267 -348 0
-267 -349 0
-267 -350 0
-267 -351 0
-267 -352 0
-267 -353 0
-267 -354 0
-267 -355 0
-267 -356 0
-267 -357 0
-267 -358 0
-267 -359 0
-267 -360 0
-267 -361 0
-267 -362 0
-267 -363 0
-267 -364 0
-267 -365 0
-267 -366 0
-267 -367 0
-267 -368 0
-267 -369 0
-267 -370 0
-267 -371 0
-267 -372 0
-267 -373 0
-267 -374 0
-267 -375 0
-267 -376 0
-267 -377 0
-267 -378 0
-267 -379 0
-267 -380 0
-267 -381 0
-267 -382 0
-267 -383 0
-267 -384 0
-268 -269 0
-268 -270 0
-268 -271 0
-268 -272 0
-268 -273 0
-268 -274 0
-268 -275 0
-268 -276 0
-268 -277 0
-268 -278 0
-268 -279 0
-268 -280 0
-268 -281 0
-268 -282 0
-268 -283 0
-268 -284 0
-268 -285 0
-268 -286 0
-268 -287 0
-268 -288 0
-268 -289 0
-268 -290 0
-268 -291 0
-268 -292 0
-268 -293 0
-268 -294 0
-268 -295 0
-268 -296 0
-268 -297 0
-268 -298 0
-268 -299 0
-268 -300 0
-268 -301 0
-268 -302 0
-268 -303 0
-268 -304 0
-268 -305 0
-268 -306 0
-268 -307 0
-268 -308 0
-268 -309 0
-268 -310 0
-268 -311 0
-268 -312 0
-268 -313 0
-268 -314 0
-268 -315 0
-268 -316 0
-268 -317 0
-268 -318 0
-268 -319 0
-268 -320 0
-268 -321 0
-268 -322 0
-268 -323 0
-268 -324 0
-268 -325 0
-268 -326 0
-268 -327 0
-268 -328 0
-268 -329 0
-268 -330 0
-268 -331 0
-268 -332 0
-268 -333 0
-268 -334 0
-268 -335 0
-268 -336 0
-268 -337 0
-268 -338 0
-268 -339 0
-268 -340 0
-268 -341 0
-268 -342 0
-268 -343 0
-268 -344 0
-268 -345 0
-268 -346 0
-268 -347 0
-268 -348 0
-268 -349 0
-268 -350 0
-268 -351 0
-268 -352 0
-268 -353 0
-268 -354 0
-268 -355 0
-268 -356 0
-268 -357 0
-268 -358 0
-268 -359 0
-268 -360 0
-268 -361 0
-268 -362 0
-268 -363 0
-268 -364 0
-268 -365 0
-268 -366 0
-268 -367 0
-268 -368 0
-268 -369 0
-268 -370 0
-268 -371 0
-268 -372 0
-268 -373 0
-268 -374 0
-268 -375 0
-268 -376 0
-268 -377 0
-268 -378 0
-268 -379 0
-268 -380 0
-268 -381 0
-268 -382 0
-268 -383 0
-268 -384 0
-269 -270 0
-269 -271 0
-269 -272 0
-269 -273 0
-269 -274 0
-269 -275 0
-269 -276 0
-269 -277 0
-269 -278 0
-269 -279 0
-269 -280 0
-269 -281 0
-269 -282 0
-269 -283 0
-269 -284 0
-269 -285 0
-269 -286 0
-269 -287 0
-269 -288 0
-269 -289 0
-269 -290 0
-269 -291 0
-269 -292 0
-269 -293 0
-269 -294 0
-269 -295 0
-269 -296 0
-269 -297 0
-269 -298 0
-269 -299 0
-269 -300 0
-269 -301 0
-269 -302 0
-269 -303 0
-269 -304 0
-269 -305 0
-269 -306 0
-269 -307 0
-269 -308 0
-269 -309 0
-269 -310 0
-269 -311 0
-269 -312 0
-269 -313 0
-269 -314 0
-269 -315 0
-269 -316 0
-269 -317 0
-269 -318 0
-269 -319 0
-269 -320 0
-269 -321 0
-269 -322 0
-269 -323 0
-269 -324 0
-269 -325 0
-269 -326 0
-269 -327 0
-269 -328 0
-269 -329 0
-269 -330 0
-269 -331 0
-269 -332 0
-269 -333 0
-269 -334 0
-269 -335 0
-269 -336 0
-269 -337 0
-269 -338 0
-269 -339 0
-269 -340 0
-269 -341 0
-269 -342 0
-269 -343 0
-269 -344 0
-269 -345 0
-269 -346 0
-269 -347 0
-269 -348 0
-269 -349 0
-269 -350 0
-269 -351 0
-269 -352 0
-269 -353 0
-269 -354 0
-269 -355 0
-269 -356 0
-269 -357 0
-269 -358 0
-269 -359 0
-269 -360 0
-269 -361 0
-269 -362 0
-269 -363 0
-269 -364 0
-269 -365 0
-269 -366 0
-269 -367 0
-269 -368 0
-269 -369 0
-269 -370 0
-269 -371 0
-269 -372 0
-269 -373 0
-269 -374 0
-269 -375 0
-269 -376 0
-269 -377 0
-269 -378 0
-269 -379 0
-269 -380 0
-269 -381 0
-269 -382 0
-269 -383 0
-269 -384 0
-270 -271 0
-270 -272 0
-270 -273 0
-270 -274 0
-270 -275 0
-270 -276 0
-270 -277 0
-270 -278 0
-270 -279 0
-270 -280 0
-270 -281 0
-270 -282 0
-270 -283 0
-270 -284 0
-270 -285 0
-270 -286 0
-270 -287 0
-270 -288 0
-270 -289 0
-270 -290 0
-270 -291 0
-270 -292 0
-270 -293 0
-270 -294 0
-270 -295 0
-270 -296 0
-270 -297 0
-270 -298 0
-270 -299 0
-270 -300 0
-270 -301 0
-270 -302 0
-270 -303 0
-270 -304 0
-270 -305 0
-270 -306 0
-270 -307 0
-270 -308 0
-270 -309 0
-270 -310 0
-270 -311 0
-270 -312 0
-270 -313 0
-270 -314 0
-270 -315 0
-270 -316 0
-270 -317 0
-270 -318 0
-270 -319 0
-270 -320 0
-270 -321 0
-270 -322 0
-270 -323 0
-270 -324 0
-270 -325 0
-270 -326 0
-270 -327 0
-270 -328 0
-270 -329 0
-270 -330 0
-270 -331 0
-270 -332 0
-270 -333 0
-270 -334 0
-270 -335 0
-270 -336 0
-270 -337 0
-270 -338 0
-270 -339 0
-270 -340 0
-270 -341 0
-270 -342 0
-270 -343 0
-270 -344 0
-270 -345 0
-270 -346 0
-270 -347 0
-270 -348 0
-270 -349 0
-270 -350 0
-270 -351 0
-270 -352 0
-270 -353 0
-270 -354 0
-270 -355 0
-270 -356 0
-270 -357 0
-270 -358 0
-270 -359 0
-270 -360 0
-270 -361 0
-270 -362 0
-270 -363 0
-270 -364 0
-270 -365 0
-270 -366 0
-270 -367 0
-270 -368 0
-270 -369 0
-270 -370 0
-270 -371 0
-270 -372 0
-270 -373 0
-270 -374 0
-270 -375 0
-270 -376 0
-270 -377 0
-270 -378 0
-270 -379 0
-270 -380 0
-270 -381 0
-270 -382 0
-270 -383 0
-270 -384 0
-271 -272 0
-271 -273 0
-271 -274 0
-271 -275 0
-271 -276 0
-271 -277 0
-271 -278 0
-271 -279 0
-271 -280 0
-271 -281 0
-271 -282 0
-271 -283 0
-271 -284 0
-271 -285 0
-271 -286 0
-271 -287 0
-271 -288 0
-271 -289 0
-271 -290 0
-271 -291 0
-271 -292 0
-271 -293 0
-271 -294 0
-271 -295 0
-271 -296 0
-271 -297 0
-271 -298 0
-271 -299 0
-271 -300 0
-271 -301 0
-271 -302 0
-271 -303 0
-271 -304 0
-271 -305 0
-271 -306 0
-271 -307 0
-271 -308 0
-271 -309 0
-271 -310 0
-271 -311 0
-271 -312 0
-271 -313 0
-271 -314 0
-271 -315 0
-271 -316 0
-271 -317 0
-271 -318 0
-271 -319 0
-271 -320 0
-271 -321 0
-271 -322 0
-271 -323 0
-271 -324 0
-271 -325 0
-271 -326 0
-271 -327 0
-271 -328 0
-271 -329 0
-271 -330 0
-271 -331 0
-271 -332 0
-271 -333 0
-271 -334 0
-271 -335 0
-271 -336 0
-271 -337 0
-271 -338 0
-271 -339 0
-271 -340 0
-271 -341 0
-271 -342 0
-271 -343 0
-271 -344 0
-271 -345 0
-271 -346 0
-271 -347 0
-271 -348 0
-271 -349 0
-271 -350 0
-271 -351 0
-271 -352 0
-271 -353 0
-271 -354 0
-271 -355 0
-271 -356 0
-271 -357 0
-271 -358 0
-271 -359 0
-271 -360 0
-271 -361 0
-271 -362 0
-271 -363 0
-271 -364 0
-271 -365 0
-271 -366 0
-271 -367 0
-271 -368 0
-271 -369 0
-271 -370 0
-271 -371 0
-271 -372 0
-271 -373 0
-271 -374 0
-271 -375 0
-271 -376 0
-271 -377 0
-271 -378 0
-271 -379 0
-271 -380 0
-271 -381 0
-271 -382 0
-271 -383 0
-271 -384 0
-272 -273 0
-272 -274 0
-272 -275 0
-272 -276 0
-272 -277 0
-272 -278 0
-272 -279 0
-272 -280 0
-272 -281 0
-272 -282 0
-272 -283 0
-272 -284 0
-272 -285 0
-272 -286 0
-272 -287 0
-272 -288 0
-272 -289 0
-272 -290 0
-272 -291 0
-272 -292 0
-272 -293 0
-272 -294 0
-272 -295 0
-272 -296 0
-272 -297 0
-272 -298 0
-272 -299 0
-272 -300 0
-272 -301 0
-272 -302 0
-272 -303 0
-272 -304 0
-272 -305 0
-272 -306 0
-272 -307 0
-272 -308 0
-272 -309 0
-272 -310 0
-272 -311 0
-272 -312 0
-272 -313 0
-272 -314 0
-272 -315 0
-272 -316 0
-272 -317 0
-272 -318 0
-272 -319 0
-272 -320 0
-272 -321 0
-272 -322 0
-272 -323 0
-272 -324 0
-272 -325 0
-272 -326 0
-272 -327 0
-272 -328 0
-272 -329 0
-272 -330 0
-272 -331 0
-272 -332 0
-272 -333 0
-272 -334 0
-272 -335 0
-272 -336 0
-272 -337 0
-272 -338 0
-272 -339 0
-272 -340 0
-272 -341 0
-272 -342 0
-272 -343 0
-272 -344 0
-272 -345 0
-272 -346 0
-272 -347 0
-272 -348 0
-272 -349 0
-272 -350 0
-272 -351 0
-272 -352 0
-272 -353 0
-272 -354 0
-272 -355 0
-272 -356 0
-272 -357 0
-272 -358 0
-272 -359 0
-272 -360 0
-272 -361 0
-272 -362 0
-272 -363 0
-272 -364 0
-272 -365 0
-272 -366 0
-272 -367 0
-272 -368 0
-272 -369 0
-272 -370 0
-272 -371 0
-272 -372 0
-272 -373 0
-272 -374 0
-272 -375 0
-272 -376 0
-272 -377 0
-272 -378 0
-272 -379 0
-272 -380 0
-272 -381 0
-272 -382 0
-272 -383 0
-272 -384 0
-273 -274 0
-273 -275 0
-273 -276 0
-273 -277 0
-273 -278 0
-273 -279 0
-273 -280 0
-273 -281 0
-273 -282 0
-273 -283 0
-273 -284 0
-273 -285 0
-273 -286 0
-273 -287 0
-273 -288 0
-273 -289 0
-273 -290 0
-273 -291 0
-273 -292 0
-273 -293 0
-273 -294 0
-273 -295 0
-273 -296 0
-273 -297 0
-273 -298 0
-273 -299 0
-273 -300 0
-273 -301 0
-273 -302 0
-273 -303 0
-273 -304 0
-273 -305 0
-273 -306 0
-273 -307 0
-273 -308 0
-273 -309 0
-273 -310 0
-273 -311 0
-273 -312 0
-273 -313 0
-273 -314 0
-273 -315 0
-273 -316 0
-273 -317 0
-273 -318 0
-273 -319 0
-273 -320 0
-273 -321 0
-273 -322 0
-273 -323 0
-273 -324 0
-273 -325 0
-273 -326 0
-273 -327 0
-273 -328 0
-273 -329 0
-273 -330 0
-273 -331 0
-273 -332 0
-273 -333 0
-273 -334 0
-273 -335 0
-273 -336 0
-273 -337 0
-273 -338 0
-273 -339 0
-273 -340 0
-273 -341 0
-273 -342 0
-273 -343 0
-273 -344 0
-273 -345 0
-273 -346 0
-273 -347 0
-273 -348 0
-273 -349 0
-273 -350 0
-273 -351 0
-273 -352 0
-273 -353 0
-273 -354 0
-273 -355 0
-273 -356 0
-273 -357 0
-273 -358 0
-273 -359 0
-273 -360 0
-273 -361 0
-273 -362 0
-273 -363 0
-273 -364 0
-273 -365 0
-273 -366 0
-273 -367 0
-273 -368 0
-273 -369 0
-273 -370 0
-273 -371 0
-273 -372 0
-273 -373 0
-273 -374 0
-273 -375 0
-273 -376 0
-273 -377 0
-273 -378 0
-273 -379 0
-273 -380 0
-273 -381 0
-273 -382 0
-273 -383 0
-273 -384 0
-274 -275 0
-274 -276 0
-274 -277 0
-274 -278 0
-274 -279 0
-274 -280 0
-274 -281 0
-274 -282 0
-274 -283 0
-274 -284 0
-274 -285 0
-274 -286 0
-274 -287 0
-274 -288 0
-274 -289 0
-274 -290 0
-274 -291 0
-274 -292 0
-274 -293 0
-274 -294 0
-274 -295 0
-274 -296 0
-274 -297 0
-274 -298 0
-274 -299 0
-274 -300 0
-274 -301 0
-274 -302 0
-274 -303 0
-274 -304 0
-274 -305 0
-274 -306 0
-274 -307 0
-274 -308 0
-274 -309 0
-274 -310 0
-274 -311 0
-274 -312 0
-274 -313 0
-274 -314 0
-274 -315 0
-274 -316 0
-274 -317 0
-274 -318 0
-274 -319 0
-274 -320 0
-274 -321 0
-274 -322 0
-274 -323 0
-274 -324 0
-274 -325 0
-274 -326 0
-274 -327 0
-274 -328 0
-274 -329 0
-274 -330 0
-274 -331 0
-274 -332 0
-274 -333 0
-274 -334 0
-274 -335 0
-274 -336 0
-274 -337 0
-274 -338 0
-274 -339 0
-274 -340 0
-274 -341 0
-274 -342 0
-274 -343 0
-274 -344 0
-274 -345 0
-274 -346 0
-274 -347 0
-274 -348 0
-274 -349 0
-274 -350 0
-274 -351 0
-274 -352 0
-274 -353 0
-274 -354 0
-274 -355 0
-274 -356 0
-274 -357 0
-274 -358 0
-274 -359 0
-274 -360 0
-274 -361 0
-274 -362 0
-274 -363 0
-274 -364 0
-274 -365 0
-274 -366 0
-274 -367 0
-274 -368 0
-274 -369 0
-274 -370 0
-274 -371 0
-274 -372 0
-274 -373 0
-274 -374 0
-274 -375 0
-274 -376 0
-274 -377 0
-274 -378 0
-274 -379 0
-274 -380 0
-274 -381 0
-274 -382 0
-274 -383 0
-274 -384 0
-275 -276 0
-275 -277 0
-275 -278 0
-275 -279 0
-275 -280 0
-275 -281 0
-275 -282 0
-275 -283 0
-275 -284 0
-275 -285 0
-275 -286 0
-275 -287 0
-275 -288 0
-275 -289 0
-275 -290 0
-275 -291 0
-275 -292 0
-275 -293 0
-275 -294 0
-275 -295 0
-275 -296 0
-275 -297 0
-275 -298 0
-275 -299 0
-275 -300 0
-275 -301 0
-275 -302 0
-275 -303 0
-275 -304 0
-275 -305 0
-275 -306 0
-275 -307 0
-275 -308 0
-275 -309 0
-275 -310 0
-275 -311 0
-275 -312 0
-275 -313 0
-275 -314 0
-275 -315 0
-275 -316 0
-275 -317 0
-275 -318 0
-275 -319 0
-275 -320 0
-275 -321 0
-275 -322 0
-275 -323 0
-275 -324 0
-275 -325 0
-275 -326 0
-275 -327 0
-275 -328 0
-275 -329 0
-275 -330 0
-275 -331 0
-275 -332 0
-275 -333 0
-275 -334 0
-275 -335 0
-275 -336 0
-275 -337 0
-275 -338 0
-275 -339 0
-275 -340 0
-275 -341 0
-275 -342 0
-275 -343 0
-275 -344 0
-275 -345 0
-275 -346 0
-275 -347 0
-275 -348 0
-275 -349 0
-275 -350 0
-275 -351 0
-275 -352 0
-275 -353 0
-275 -354 0
-275 -355 0
-275 -356 0
-275 -357 0
-275 -358 0
-275 -359 0
-275 -360 0
-275 -361 0
-275 -362 0
-275 -363 0
-275 -364 0
-275 -365 0
-275 -366 0
-275 -367 0
-275 -368 0
-275 -369 0
-275 -370 0
-275 -371 0
-275 -372 0
-275 -373 0
-275 -374 0
-275 -375 0
-275 -376 0
-275 -377 0
-275 -378 0
-275 -379 0
-275 -380 0
-275 -381 0
-275 -382 0
-275 -383 0
-275 -384 0
-276 -277 0
-276 -278 0
-276 -279 0
-276 -280 0
-276 -281 0
-276 -282 0
-276 -283 0
-276 -284 0
-276 -285 0
-276 -286 0
-276 -287 0
-276 -288 0
-276 -289 0
-276 -290 0
-276 -291 0
-276 -292 0
-276 -293 0
-276 -294 0
-276 -295 0
-276 -296 0
-276 -297 0
-276 -298 0
-276 -299 0
-276 -300 0
-276 -301 0
-276 -302 0
-276 -303 0
-276 -304 0
-276 -305 0
-276 -306 0
-276 -307 0
-276 -308 0
-276 -309 0
-276 -310 0
-276 -311 0
-276 -312 0
-276 -313 0
-276 -314 0
-276 -315 0
-276 -316 0
-276 -317 0
-276 -318 0
-276 -319 0
-276 -320 0
-276 -321 0
-276 -322 0
-276 -323 0
-276 -324 0
-276 -325 0
-276 -326 0
-276 -327 0
-276 -328 0
-276 -329 0
-276 -330 0
-276 -331 0
-276 -332 0
-276 -333 0
-276 -334 0
-276 -335 0
-276 -336 0
-276 -337 0
-276 -338 0
-276 -339 0
-276 -340 0
-276 -341 0
-276 -342 0
-276 -343 0
-276 -344 0
-276 -345 0
-276 -346 0
-276 -347 0
-276 -348 0
-276 -349 0
-276 -350 0
-276 -351 0
-276 -352 0
-276 -353 0
-276 -354 0
-276 -355 0
-276 -356 0
-276 -357 0
-276 -358 0
-276 -359 0
-276 -360 0
-276 -361 0
-276 -362 0
-276 -363 0
-276 -364 0
-276 -365 0
-276 -366 0
-276 -367 0
-276 -368 0
-276 -369 0
-276 -370 0
-276 -371 0
-276 -372 0
-276 -373 0
-276 -374 0
-276 -375 0
-276 -376 0
-276 -377 0
-276 -378 0
-276 -379 0
-276 -380 0
-276 -381 0
-276 -382 0
-276 -383 0
-276 -384 0
-277 -278 0
-277 -279 0
-277 -280 0
-277 -281 0
-277 -282 0
-277 -283 0
-277 -284 0
-277 -285 0
-277 -286 0
-277 -287 0
-277 -288 0
-277 -289 0
-277 -290 0
-277 -291 0
-277 -292 0
-277 -293 0
-277 -294 0
-277 -295 0
-277 -296 0
-277 -297 0
-277 -298 0
-277 -299 0
-277 -300 0
-277 -301 0
-277 -302 0
-277 -303 0
-277 -304 0
-277 -305 0
-277 -306 0
-277 -307 0
-277 -308 0
-277 -309 0
-277 -310 0
-277 -311 0
-277 -312 0
-277 -313 0
-277 -314 0
-277 -315 0
-277 -316 0
-277 -317 0
-277 -318 0
-277 -319 0
-277 -320 0
-277 -321 0
-277 -322 0
-277 -323 0
-277 -324 0
-277 -325 0
-277 -326 0
-277 -327 0
-277 -328 0
-277 -329 0
-277 -330 0
-277 -331 0
-277 -332 0
-277 -333 0
-277 -334 0
-277 -335 0
-277 -336 0
-277 -337 0
-277 -338 0
-277 -339 0
-277 -340 0
-277 -341 0
-277 -342 0
-277 -343 0
-277 -344 0
-277 -345 0
-277 -346 0
-277 -347 0
-277 -348 0
-277 -349 0
-277 -350 0
-277 -351 0
-277 -352 0
-277 -353 0
-277 -354 0
-277 -355 0
-277 -356 0
-277 -357 0
-277 -358 0
-277 -359 0
-277 -360 0
-277 -361 0
-277 -362 0
-277 -363 0
-277 -364 0
-277 -365 0
-277 -366 0
-277 -367 0
-277 -368 0
-277 -369 0
-277 -370 0
-277 -371 0
-277 -372 0
-277 -373 0
-277 -374 0
-277 -375 0
-277 -376 0
-277 -377 0
-277 -378 0
-277 -379 0
-277 -380 0
-277 -381 0
-277 -382 0
-277 -383 0
-277 -384 0
-278 -279 0
-278 -280 0
-278 -281 0
-278 -282 0
-278 -283 0
-278 -284 0
-278 -285 0
-278 -286 0
-278 -287 0
-278 -288 0
-278 -289 0
-278 -290 0
-278 -291 0
-278 -292 0
-278 -293 0
-278 -294 0
-278 -295 0
-278 -296 0
-278 -297 0
-278 -298 0
-278 -299 0
-278 -300 0
-278 -301 0
-278 -302 0
-278 -303 0
-278 -304 0
-278 -305 0
-278 -306 0
-278 -307 0
-278 -308 0
-278 -309 0
-278 -310 0
-278 -311 0
-278 -312 0
-278 -313 0
-278 -314 0
-278 -315 0
-278 -316 0
-278 -317 0
-278 -318 0
-278 -319 0
-278 -320 0
-278 -321 0
-278 -322 0
-278 -323 0
-278 -324 0
-278 -325 0
-278 -326 0
-278 -327 0
-278 -328 0
-278 -329 0
-278 -330 0
-278 -331 0
-278 -332 0
-278 -333 0
-278 -334 0
-278 -335 0
-278 -336 0
-278 -337 0
-278 -338 0
-278 -339 0
-278 -340 0
-278 -341 0
-278 -342 0
-278 -343 0
-278 -344 0
-278 -345 0
-278 -346 0
-278 -347 0
-278 -348 0
-278 -349 0
-278 -350 0
-278 -351 0
-278 -352 0
-278 -353 0
-278 -354 0
-278 -355 0
-278 -356 0
-278 -357 0
-278 -358 0
-278 -359 0
-278 -360 0
-278 -361 0
-278 -362 0
-278 -363 0
-278 -364 0
-278 -365 0
-278 -366 0
-278 -367 0
-278 -368 0
-278 -369 0
-278 -370 0
-278 -371 0
-278 -372 0
-278 -373 0
-278 -374 0
-278 -375 0
-278 -376 0
-278 -377 0
-278 -378 0
-278 -379 0
-278 -380 0
-278 -381 0
-278 -382 0
-278 -383 0
-278 -384 0
-279 -280 0
-279 -281 0
-279 -282 0
-279 -283 0
-279 -284 0
-279 -285 0
-279 -286 0
-279 -287 0
-279 -288 0
-279 -289 0
-279 -290 0
-279 -291 0
-279 -292 0
-279 -293 0
-279 -294 0
-279 -295 0
-279 -296 0
-279 -297 0
-279 -298 0
-279 -299 0
-279 -300 0
-279 -301 0
-279 -302 0
-279 -303 0
-279 -304 0
-279 -305 0
-279 -306 0
-279 -307 0
-279 -308 0
-279 -309 0
-279 -310 0
-279 -311 0
-279 -312 0
-279 -313 0
-279 -314 0
-279 -315 0
-279 -316 0
-279 -317 0
-279 -318 0
-279 -319 0
-279 -320 0
-279 -321 0
-279 -322 0
-279 -323 0
-279 -324 0
-279 -325 0
-279 -326 0
-279 -327 0
-279 -328 0
-279 -329 0
-279 -330 0
-279 -331 0
-279 -332 0
-279 -333 0
-279 -334 0
-279 -335 0
-279 -336 0
-279 -337 0
-279 -338 0
-279 -339 0
-279 -340 0
-279 -341 0
-279 -342 0
-279 -343 0
-279 -344 0
-279 -345 0
-279 -346 0
-279 -347 0
-279 -348 0
-279 -349 0
-279 -350 0
-279 -351 0
-279 -352 0
-279 -353 0
-279 -354 0
-279 -355 0
-279 -356 0
-279 -357 0
-279 -358 0
-279 -359 0
-279 -360 0
-279 -361 0
-279 -362 0
-279 -363 0
-279 -364 0
-279 -365 0
-279 -366 0
-279 -367 0
-279 -368 0
-279 -369 0
-279 -370 0
-279 -371 0
-279 -372 0
-279 -373 0
-279 -374 0
-279 -375 0
-279 -376 0
-279 -377 0
-279 -378 0
-279 -379 0
-279 -380 0
-279 -381 0
-279 -382 0
-279 -383 0
-279 -384 0
-280 -281 0
-280 -282 0
-280 -283 0
-280 -284 0
-280 -285 0
-280 -286 0
-280 -287 0
-280 -288 0
-280 -289 0
-280 -290 0
-280 -291 0
-280 -292 0
-280 -293 0
-280 -294 0
-280 -295 0
-280 -296 0
-280 -297 0
-280 -298 0
-280 -299 0
-280 -300 0
-280 -301 0
-280 -302 0
-280 -303 0
-280 -304 0
-280 -305 0
-280 -306 0
-280 -307 0
-280 -308 0
-280 -309 0
-280 -310 0
-280 -311 0
-280 -312 0
-280 -313 0
-280 -314 0
-280 -315 0
-280 -316 0
-280 -317 0
-280 -318 0
-280 -319 0
-280 -320 0
-280 -321 0
-280 -322 0
-280 -323 0
-280 -324 0
-280 -325 0
-280 -326 0
-280 -327 0
-280 -328 0
-280 -329 0
-280 -330 0
-280 -331 0
-280 -332 0
-280 -333 0
-280 -334 0
-280 -335 0
-280 -336 0
-280 -337 0
-280 -338 0
-280 -339 0
-280 -340 0
-280 -341 0
-280 -342 0
-280 -343 0
-280 -344 0
-280 -345 0
-280 -346 0
-280 -347 0
-280 -348 0
-280 -349 0
-280 -350 0
-280 -351 0
-280 -352 0
-280 -353 0
-280 -354 0
-280 -355 0
-280 -356 0
-280 -357 0
-280 -358 0
-280 -359 0
-280 -360 0
-280 -361 0
-280 -362 0
-280 -363 0
-280 -364 0
-280 -365 0
-280 -366 0
-280 -367 0
-280 -368 0
-280 -369 0
-280 -370 0
-280 -371 0
-280 -372 0
-280 -373 0
-280 -374 0
-280 -375 0
-280 -376 0
-280 -377 0
-280 -378 0
-280 -379 0
-280 -380 0
-280 -381 0
-280 -382 0
-280 -383 0
-280 -384 0
-281 -282 0
-281 -283 0
-281 -284 0
-281 -285 0
-281 -286 0
-281 -287 0
-281 -288 0
-281 -289 0
-281 -290 0
-281 -291 0
-281 -292 0
-281 -293 0
-281 -294 0
-281 -295 0
-281 -296 0
-281 -297 0
-281 -298 0
-281 -299 0
-281 -300 0
-281 -301 0
-281 -302 0
-281 -303 0
-281 -304 0
-281 -305 0
-281 -306 0
-281 -307 0
-281 -308 0
-281 -309 0
-281 -310 0
-281 -311 0
-281 -312 0
-281 -313 0
-281 -314 0
-281 -315 0
-281 -316 0
-281 -317 0
-281 -318 0
-281 -319 0
-281 -320 0
-281 -321 0
-281 -322 0
-281 -323 0
-281 -324 0
-281 -325 0
-281 -326 0
-281 -327 0
-281 -328 0
-281 -329 0
-281 -330 0
-281 -331 0
-281 -332 0
-281 -333 0
-281 -334 0
-281 -335 0
-281 -336 0
-281 -337 0
-281 -338 0
-281 -339 0
-281 -340 0
-281 -341 0
-281 -342 0
-281 -343 0
-281 -344 0
-281 -345 0
-281 -346 0
-281 -347 0
-281 -348 0
-281 -349 0
-281 -350 0
-281 -351 0
-281 -352 0
-281 -353 0
-281 -354 0
-281 -355 0
-281 -356 0
-281 -357 0
-281 -358 0
-281 -359 0
-281 -360 0
-281 -361 0
-281 -362 0
-281 -363 0
-281 -364 0
-281 -365 0
-281 -366 0
-281 -367 0
-281 -368 0
-281 -369 0
-281 -370 0
-281 -371 0
-281 -372 0
-281 -373 0
-281 -374 0
-281 -375 0
-281 -376 0
-281 -377 0
-281 -378 0
-281 -379 0
-281 -380 0
-281 -381 0
-281 -382 0
-281 -383 0
-281 -384 0
-282 -283 0
-282 -284 0
-282 -285 0
-282 -286 0
-282 -287 0
-282 -288 0
-282 -289 0
-282 -290 0
-282 -291 0
-282 -292 0
-282 -293 0
-282 -294 0
-282 -295 0
-282 -296 0
-282 -297 0
-282 -298 0
-282 -299 0
-282 -300 0
-282 -301 0
-282 -302 0
-282 -303 0
-282 -304 0
-282 -305 0
-282 -306 0
-282 -307 0
-282 -308 0
-282 -309 0
-282 -310 0
-282 -311 0
-282 -312 0
-282 -313 0
-282 -314 0
-282 -315 0
-282 -316 0
-282 -317 0
-282 -318 0
-282 -319 0
-282 -320 0
-282 -321 0
-282 -322 0
-282 -323 0
-282 -324 0
-282 -325 0
-282 -326 0
-282 -327 0
-282 -328 0
-282 -329 0
-282 -330 0
-282 -331 0
-282 -332 0
-282 -333 0
-282 -334 0
-282 -335 0
-282 -336 0
-282 -337 0
-282 -338 0
-282 -339 0
-282 -340 0
-282 -341 0
-282 -342 0
-282 -343 0
-282 -344 0
-282 -345 0
-282 -346 0
-282 -347 0
-282 -348 0
-282 -349 0
-282 -350 0
-282 -351 0
-282 -352 0
-282 -353 0
-282 -354 0
-282 -355 0
-282 -356 0
-282 -357 0
-282 -358 0
-282 -359 0
-282 -360 0
-282 -361 0
-282 -362 0
-282 -363 0
-282 -364 0
-282 -365 0
-282 -366 0
-282 -367 0
-282 -368 0
-282 -369 0
-282 -370 0
-282 -371 0
-282 -372 0
-282 -373 0
-282 -374 0
-282 -375 0
-282 -376 0
-282 -377 0
-282 -378 0
-282 -379 0
-282 -380 0
-282 -381 0
-282 -382 0
-282 -383 0
-282 -384 0
-283 -284 0
-283 -285 0
-283 -286 0
-283 -287 0
-283 -288 0
-283 -289 0
-283 -290 0
-283 -291 0
-283 -292 0
-283 -293 0
-283 -294 0
-283 -295 0
-283 -296 0
-283 -297 0
-283 -298 0
-283 -299 0
-283 -300 0
-283 -301 0
-283 -302 0
-283 -303 0
-283 -304 0
-283 -305 0
-283 -306 0
-283 -307 0
-283 -308 0
-283 -309 0
-283 -310 0
-283 -311 0
-283 -312 0
-283 -313 0
-283 -314 0
-283 -315 0
-283 -316 0
-283 -317 0
-283 -318 0
-283 -319 0
-283 -320 0
-283 -321 0
-283 -322 0
-283 -323 0
-283 -324 0
-283 -325 0
-283 -326 0
-283 -327 0
-283 -328 0
-283 -329 0
-283 -330 0
-283 -331 0
-283 -332 0
-283 -333 0
-283 -334 0
-283 -335 0
-283 -336 0
-283 -337 0
-283 -338 0
-283 -339 0
-283 -340 0
-283 -341 0
-283 -342 0
-283 -343 0
-283 -344 0
-283 -345 0
-283 -346 0
-283 -347 0
-283 -348 0
-283 -349 0
-283 -350 0
-283 -351 0
-283 -352 0
-283 -353 0
-283 -354 0
-283 -355 0
-283 -356 0
-283 -357 0
-283 -358 0
-283 -359 0
-283 -360 0
-283 -361 0
-283 -362 0
-283 -363 0
-283 -364 0
-283 -365 0
-283 -366 0
-283 -367 0
-283 -368 0
-283 -369 0
-283 -370 0
-283 -371 0
-283 -372 0
-283 -373 0
-283 -374 0
-283 -375 0
-283 -376 0
-283 -377 0
-283 -378 0
-283 -379 0
-283 -380 0
-283 -381 0
-283 -382 0
-283 -383 0
-283 -384 0
-284 -285 0
-284 -286 0
-284 -287 0
-284 -288 0
-284 -289 0
-284 -290 0
-284 -291 0
-284 -292 0
-284 -293 0
-284 -294 0
-284 -295 0
-284 -296 0
-284 -297 0
-284 -298 0
-284 -299 0
-284 -300 0
-284 -301 0
-284 -302 0
-284 -303 0
-284 -304 0
-284 -305 0
-284 -306 0
-284 -307 0
-284 -308 0
-284 -309 0
-284 -310 0
-284 -311 0
-284 -312 0
-284 -313 0
-284 -314 0
-284 -315 0
-284 -316 0
-284 -317 0
-284 -318 0
-284 -319 0
-284 -320 0
-284 -321 0
-284 -322 0
-284 -323 0
-284 -324 0
-284 -325 0
-284 -326 0
-284 -327 0
-284 -328 0
-284 -329 0
-284 -330 0
-284 -331 0
-284 -332 0
-284 -333 0
-284 -334 0
-284 -335 0
-284 -336 0
-284 -337 0
-284 -338 0
-284 -339 0
-284 -340 0
-284 -341 0
-284 -342 0
-284 -343 0
-284 -344 0
-284 -345 0
-284 -346 0
-284 -347 0
-284 -348 0
-284 -349 0
-284 -350 0
-284 -351 0
-284 -352 0
-284 -353 0
-284 -354 0
-284 -355 0
-284 -356 0
-284 -357 0
-284 -358 0
-284 -359 0
-284 -360 0
-284 -361 0
-284 -362 0
-284 -363 0
-284 -364 0
-284 -365 0
-284 -366 0
-284 -367 0
-284 -368 0
-284 -369 0
-284 -370 0
-284 -371 0
-284 -372 0
-284 -373 0
-284 -374 0
-284 -375 0
-284 -376 0
-284 -377 0
-284 -378 0
-284 -379 0
-284 -380 0
-284 -381 0
-284 -382 0
-284 -383 0
-284 -384 0
-285 -286 0
-285 -287 0
-285 -288 0
-285 -289 0
-285 -290 0
-285 -291 0
-285 -292 0
-285 -293 0
-285 -294 0
-285 -295 0
-285 -296 0
-285 -297 0
-285 -298 0
-285 -299 0
-285 -300 0
-285 -301 0
-285 -302 0
-285 -303 0
-285 -304 0
-285 -305 0
-285 -306 0
-285 -307 0
-285 -308 0
-285 -309 0
-285 -310 0
-285 -311 0
-285 -312 0
-285 -313 0
-285 -314 0
-285 -315 0
-285 -316 0
-285 -317 0
-285 -318 0
-285 -319 0
-285 -320 0
-285 -321 0
-285 -322 0
-285 -323 0
-285 -324 0
-285 -325 0
-285 -326 0
-285 -327 0
-285 -328 0
-285 -329 0
-285 -330 0
-285 -331 0
-285 -332 0
-285 -333 0
-285 -334 0
-285 -335 0
-285 -336 0
-285 -337 0
-285 -338 0
-285 -339 0
-285 -340 0
-285 -341 0
-285 -342 0
-285 -343 0
-285 -344 0
-285 -345 0
-285 -346 0
-285 -347 0
-285 -348 0
-285 -349 0
-285 -350 0
-285 -351 0
-285 -352 0
-285 -353 0
-285 -354 0
-285 -355 0
-285 -356 0
-285 -357 0
-285 -358 0
-285 -359 0
-285 -360 0
-285 -361 0
-285 -362 0
-285 -363 0
-285 -364 0
-285 -365 0
-285 -366 0
-285 -367 0
-285 -368 0
-285 -369 0
-285 -370 0
-285 -371 0
-285 -372 0
-285 -373 0
-285 -374 0
-285 -375 0
-285 -376 0
-285 -377 0
-285 -378 0
-285 -379 0
-285 -380 0
-285 -381 0
-285 -382 0
-285 -383 0
-285 -384 0
-286 -287 0
-286 -288 0
-286 -289 0
-286 -290 0
-286 -291 0
-286 -292 0
-286 -293 0
-286 -294 0
-286 -295 0
-286 -296 0
-286 -297 0
-286 -298 0
-286 -299 0
-286 -300 0
-286 -301 0
-286 -302 0
-286 -303 0
-286 -304 0
-286 -305 0
-286 -306 0
-286 -307 0
-286 -308 0
-286 -309 0
-286 -310 0
-286 -311 0
-286 -312 0
-286 -313 0
-286 -314 0
-286 -315 0
-286 -316 0
-286 -317 0
-286 -318 0
-286 -319 0
-286 -320 0
-286 -321 0
-286 -322 0
-286 -323 0
-286 -324 0
-286 -325 0
-286 -326 0
-286 -327 0
-286 -328 0
-286 -329 0
-286 -330 0
-286 -331 0
-286 -332 0
-286 -333 0
-286 -334 0
-286 -335 0
-286 -336 0
-286 -337 0
-286 -338 0
-286 -339 0
-286 -340 0
-286 -341 0
-286 -342 0
-286 -343 0
-286 -344 0
-286 -345 0
-286 -346 0
-286 -347 0
-286 -348 0
-286 -349 0
-286 -350 0
-286 -351 0
-286 -352 0
-286 -353 0
-286 -354 0
-286 -355 0
-286 -356 0
-286 -357 0
-286 -358 0
-286 -359 0
-286 -360 0
-286 -361 0
-286 -362 0
-286 -363 0
-286 -364 0
-286 -365 0
-286 -366 0
-286 -367 0
-286 -368 0
-286 -369 0
-286 -370 0
-286 -371 0
-286 -372 0
-286 -373 0
-286 -374 0
-286 -375 0
-286 -376 0
-286 -377 0
-286 -378 0
-286 -379 0
-286 -380 0
-286 -381 0
-286 -382 0
-286 -383 0
-286 -384 0
-287 -288 0
-287 -289 0
-287 -290 0
-287 -291 0
-287 -292 0
-287 -293 0
-287 -294 0
-287 -295 0
-287 -296 0
-287 -297 0
-287 -298 0
-287 -299 0
-287 -300 0
-287 -301 0
-287 -302 0
-287 -303 0
-287 -304 0
-287 -305 0
-287 -306 0
-287 -307 0
-287 -308 0
-287 -309 0
-287 -310 0
-287 -311 0
-287 -312 0
-287 -313 0
-287 -314 0
-287 -315 0
-287 -316 0
-287 -317 0
-287 -318 0
-287 -319 0
-287 -320 0
-287 -321 0
-287 -322 0
-287 -323 0
-287 -324 0
-287 -325 0
-287 -326 0
-287 -327 0
-287 -328 0
-287 -329 0
-287 -330 0
-287 -331 0
-287 -332 0
-287 -333 0
-287 -334 0
-287 -335 0
-287 -336 0
-287 -337 0
-287 -338 0
-287 -339 0
-287 -340 0
-287 -341 0
-287 -342 0
-287 -343 0
-287 -344 0
-287 -345 0
-287 -346 0
-287 -347 0
-287 -348 0
-287 -349 0
-287 -350 0
-287 -351 0
-287 -352 0
-287 -353 0
-287 -354 0
-287 -355 0
-287 -356 0
-287 -357 0
-287 -358 0
-287 -359 0
-287 -360 0
-287 -361 0
-287 -362 0
-287 -363 0
-287 -364 0
-287 -365 0
-287 -366 0
-287 -367 0
-287 -368 0
-287 -369 0
-287 -370 0
-287 -371 0
-287 -372 0
-287 -373 0
-287 -374 0
-287 -375 0
-287 -376 0
-287 -377 0
-287 -378 0
-287 -379 0
-287 -380 0
-287 -381 0
-287 -382 0
-287 -383 0
-287 -384 0
-288 -289 0
-288 -290 0
-288 -291 0
-288 -292 0
-288 -293 0
-288 -294 0
-288 -295 0
-288 -296 0
-288 -297 0
-288 -298 0
-288 -299 0
-288 -300 0
-288 -301 0
-288 -302 0
-288 -303 0
-288 -304 0
-288 -305 0
-288 -306 0
-288 -307 0
-288 -308 0
-288 -309 0
-288 -310 0
-288 -311 0
-288 -312 0
-288 -313 0
-288 -314 0
-288 -315 0
-288 -316 0
-288 -317 0
-288 -318 0
-288 -319 0
-288 -320 0
-288 -321 0
-288 -322 0
-288 -323 0
-288 -324 0
-288 -325 0
-288 -326 0
-288 -327 0
-288 -328 0
-288 -329 0
-288 -330 0
-288 -331 0
-288 -332 0
-288 -333 0
-288 -334 0
-288 -335 0
-288 -336 0
-288 -337 0
-288 -338 0
-288 -339 0
-288 -340 0
-288 -341 0
-288 -342 0
-288 -343 0
-288 -344 0
-288 -345 0
-288 -346 0
-288 -347 0
-288 -348 0
-288 -349 0
-288 -350 0
-288 -351 0
-288 -352 0
-288 -353 0
-288 -354 0
-288 -355 0
-288 -356 0
-288 -357 0
-288 -358 0
-288 -359 0
-288 -360 0
-288 -361 0
-288 -362 0
-288 -363 0
-288 -364 0
-288 -365 0
-288 -366 0
-288 -367 0
-288 -368 0
-288 -369 0
-288 -370 0
-288 -371 0
-288 -372 0
-288 -373 0
-288 -374 0
-288 -375 0
-288 -376 0
-288 -377 0
-288 -378 0
-288 -379 0
-288 -380 0
-288 -381 0
-288 -382 0
-288 -383 0
-288 -384 0
-289 -290 0
-289 -291 0
-289 -292 0
-289 -293 0
-289 -294 0
-289 -295 0
-289 -296 0
-289 -297 0
-289 -298 0
-289 -299 0
-289 -300 0
-289 -301 0
-289 -302 0
-289 -303 0
-289 -304 0
-289 -305 0
-289 -306 0
-289 -307 0
-289 -308 0
-289 -309 0
-289 -310 0
-289 -311 0
-289 -312 0
-289 -313 0
-289 -314 0
-289 -315 0
-289 -316 0
-289 -317 0
-289 -318 0
-289 -319 0
-289 -320 0
-289 -321 0
-289 -322 0
-289 -323 0
-289 -324 0
-289 -325 0
-289 -326 0
-289 -327 0
-289 -328 0
-289 -329 0
-289 -330 0
-289 -331 0
-289 -332 0
-289 -333 0
-289 -334 0
-289 -335 0
-289 -336 0
-289 -337 0
-289 -338 0
-289 -339 0
-289 -340 0
-289 -341 0
-289 -342 0
-289 -343 0
-289 -344 0
-289 -345 0
-289 -346 0
-289 -347 0
-289 -348 0
-289 -349 0
-289 -350 0
-289 -351 0
-289 -352 0
-289 -353 0
-289 -354 0
-289 -355 0
-289 -356 0
-289 -357 0
-289 -358 0
-289 -359 0
-289 -360 0
-289 -361 0
-289 -362 0
-289 -363 0
-289 -364 0
-289 -365 0
-289 -366 0
-289 -367 0
-289 -368 0
-289 -369 0
-289 -370 0
-289 -371 0
-289 -372 0
-289 -373 0
-289 -374 0
-289 -375 0
-289 -376 0
-289 -377 0
-289 -378 0
-289 -379 0
-289 -380 0
-289 -381 0
-289 -382 0
-289 -383 0
-289 -384 0
-290 -291 0
-290 -292 0
-290 -293 0
-290 -294 0
-290 -295 0
-290 -296 0
-290 -297 0
-290 -298 0
-290 -299 0
-290 -300 0
-290 -301 0
-290 -302 0
-290 -303 0
-290 -304 0
-290 -305 0
-290 -306 0
-290 -307 0
-290 -308 0
-290 -309 0
-290 -310 0
-290 -311 0
-290 -312 0
-290 -313 0
-290 -314 0
-290 -315 0
-290 -316 0
-290 -317 0
-290 -318 0
-290 -319 0
-290 -320 0
-290 -321 0
-290 -322 0
-290 -323 0
-290 -324 0
-290 -325 0
-290 -326 0
-290 -327 0
-290 -328 0
-290 -329 0
-290 -330 0
-290 -331 0
-290 -332 0
-290 -333 0
-290 -334 0
-290 -335 0
-290 -336 0
-290 -337 0
-290 -338 0
-290 -339 0
-290 -340 0
-290 -341 0
-290 -342 0
-290 -343 0
-290 -344 0
-290 -345 0
-290 -346 0
-290 -347 0
-290 -348 0
-290 -349 0
-290 -350 0
-290 -351 0
-290 -352 0
-290 -353 0
-290 -354 0
-290 -355 0
-290 -356 0
-290 -357 0
-290 -358 0
-290 -359 0
-290 -360 0
-290 -361 0
-290 -362 0
-290 -363 0
-290 -364 0
-290 -365 0
-290 -366 0
-290 -367 0
-290 -368 0
-290 -369 0
-290 -370 0
-290 -371 0
-290 -372 0
-290 -373 0
-290 -374 0
-290 -375 0
-290 -376 0
-290 -377 0
-290 -378 0
-290 -379 0
-290 -380 0
-290 -381 0
-290 -382 0
-290 -383 0
-290 -384 0
-291 -292 0
-291 -293 0
-291 -294 0
-291 -295 0
-291 -296 0
-291 -297 0
-291 -298 0
-291 -299 0
-291 -300 0
-291 -301 0
-291 -302 0
-291 -303 0
-291 -304 0
-291 -305 0
-291 -306 0
-291 -307 0
-291 -308 0
-291 -309 0
-291 -310 0
-291 -311 0
-291 -312 0
-291 -313 0
-291 -314 0
-291 -315 0
-291 -316 0
-291 -317 0
-291 -318 0
-291 -319 0
-291 -320 0
-291 -321 0
-291 -322 0
-291 -323 0
-291 -324 0
-291 -325 0
-291 -326 0
-291 -327 0
-291 -328 0
-291 -329 0
-291 -330 0
-291 -331 0
-291 -332 0
-291 -333 0
-291 -334 0
-291 -335 0
-291 -336 0
-291 -337 0
-291 -338 0
-291 -339 0
-291 -340 0
-291 -341 0
-291 -342 0
-291 -343 0
-291 -344 0
-291 -345 0
-291 -346 0
-291 -347 0
-291 -348 0
-291 -349 0
-291 -350 0
-291 -351 0
-291 -352 0
-291 -353 0
-291 -354 0
-291 -355 0
-291 -356 0
-291 -357 0
-291 -358 0
-291 -359 0
-291 -360 0
-291 -361 0
-291 -362 0
-291 -363 0
-291 -364 0
-291 -365 0
-291 -366 0
-291 -367 0
-291 -368 0
-291 -369 0
-291 -370 0
-291 -371 0
-291 -372 0
-291 -373 0
-291 -374 0
-291 -375 0
-291 -376 0
-291 -377 0
-291 -378 0
-291 -379 0
-291 -380 0
-291 -381 0
-291 -382 0
-291 -383 0
-291 -384 0
-292 -293 0
-292 -294 0
-292 -295 0
-292 -296 0
-292 -297 0
-292 -298 0
-292 -299 0
-292 -300 0
-292 -301 0
-292 -302 0
-292 -303 0
-292 -304 0
-292 -305 0
-292 -306 0
-292 -307 0
-292 -308 0
-292 -309 0
-292 -310 0
-292 -311 0
-292 -312 0
-292 -313 0
-292 -314 0
-292 -315 0
-292 -316 0
-292 -317 0
-292 -318 0
-292 -319 0
-292 -320 0
-292 -321 0
-292 -322 0
-292 -323 0
-292 -324 0
-292 -325 0
-292 -326 0
-292 -327 0
-292 -328 0
-292 -329 0
-292 -330 0
-292 -331 0
-292 -332 0
-292 -333 0
-292 -334 0
-292 -335 0
-292 -336 0
-292 -337 0
-292 -338 0
-292 -339 0
-292 -340 0
-292 -341 0
-292 -342 0
-292 -343 0
-292 -344 0
-292 -345 0
-292 -346 0
-292 -347 0
-292 -348 0
-292 -349 0
-292 -350 0
-292 -351 0
-292 -352 0
-292 -353 0
-292 -354 0
-292 -355 0
-292 -356 0
-292 -357 0
-292 -358 0
-292 -359 0
-292 -360 0
-292 -361 0
-292 -362 0
-292 -363 0
-292 -364 0
-292 -365 0
-292 -366 0
-292 -367 0
-292 -368 0
-292 -369 0
-292 -370 0
-292 -371 0
-292 -372 0
-292 -373 0
-292 -374 0
-292 -375 0
-292 -376 0
-292 -377 0
-292 -378 0
-292 -379 0
-292 -380 0
-292 -381 0
-292 -382 0
-292 -383 0
-292 -384 0
-293 -294 0
-293 -295 0
-293 -296 0
-293 -297 0
-293 -298 0
-293 -299 0
-293 -300 0
-293 -301 0
-293 -302 0
-293 -303 0
-293 -304 0
-293 -305 0
-293 -306 0
-293 -307 0
-293 -308 0
-293 -309 0
-293 -310 0
-293 -311 0
-293 -312 0
-293 -313 0
-293 -314 0
-293 -315 0
-293 -316 0
-293 -317 0
-293 -318 0
-293 -319 0
-293 -320 0
-293 -321 0
-293 -322 0
-293 -323 0
-293 -324 0
-293 -325 0
-293 -326 0
-293 -327 0
-293 -328 0
-293 -329 0
-293 -330 0
-293 -331 0
-293 -332 0
-293 -333 0
-293 -334 0
-293 -335 0
-293 -336 0
-293 -337 0
-293 -338 0
-293 -339 0
-293 -340 0
-293 -341 0
-293 -342 0
-293 -343 0
-293 -344 0
-293 -345 0
-293 -346 0
-293 -347 0
-293 -348 0
-293 -349 0
-293 -350 0
-293 -351 0
-293 -352 0
-293 -353 0
-293 -354 0
-293 -355 0
-293 -356 0
-293 -357 0
-293 -358 0
-293 -359 0
-293 -360 0
-293 -361 0
-293 -362 0
-293 -363 0
-293 -364 0
-293 -365 0
-293 -366 0
-293 -367 0
-293 -368 0
-293 -369 0
-293 -370 0
-293 -371 0
-293 -372 0
-293 -373 0
-293 -374 0
-293 -375 0
-293 -376 0
-293 -377 0
-293 -378 0
-293 -379 0
-293 -380 0
-293 -381 0
-293 -382 0
-293 -383 0
-293 -384 0
-294 -295 0
-294 -296 0
-294 -297 0
-294 -298 0
-294 -299 0
-294 -300 0
-294 -301 0
-294 -302 0
-294 -303 0
-294 -304 0
-294 -305 0
-294 -306 0
-294 -307 0
-294 -308 0
-294 -309 0
-294 -310 0
-294 -311 0
-294 -312 0
-294 -313 0
-294 -314 0
-294 -315 0
-294 -316 0
-294 -317 0
-294 -318 0
-294 -319 0
-294 -320 0
-294 -321 0
-294 -322 0
-294 -323 0
-294 -324 0
-294 -325 0
-294 -326 0
-294 -327 0
-294 -328 0
-294 -329 0
-294 -330 0
-294 -331 0
-294 -332 0
-294 -333 0
-294 -334 0
-294 -335 0
-294 -336 0
-294 -337 0
-294 -338 0
-294 -339 0
-294 -340 0
-294 -341 0
-294 -342 0
-294 -343 0
-294 -344 0
-294 -345 0
-294 -346 0
-294 -347 0
-294 -348 0
-294 -349 0
-294 -350 0
-294 -351 0
-294 -352 0
-294 -353 0
-294 -354 0
-294 -355 0
-294 -356 0
-294 -357 0
-294 -358 0
-294 -359 0
-294 -360 0
-294 -361 0
-294 -362 0
-294 -363 0
-294 -364 0
-294 -365 0
-294 -366 0
-294 -367 0
-294 -368 0
-294 -369 0
-294 -370 0
-294 -371 0
-294 -372 0
-294 -373 0
-294 -374 0
-294 -375 0
-294 -376 0
-294 -377 0
-294 -378 0
-294 -379 0
-294 -380 0
-294 -381 0
-294 -382 0
-294 -383 0
-294 -384 0
-295 -296 0
-295 -297 0
-295 -298 0
-295 -299 0
-295 -300 0
-295 -301 0
-295 -302 0
-295 -303 0
-295 -304 0
-295 -305 0
-295 -306 0
-295 -307 0
-295 -308 0
-295 -309 0
-295 -310 0
-295 -311 0
-295 -312 0
-295 -313 0
-295 -314 0
-295 -315 0
-295 -316 0
-295 -317 0
-295 -318 0
-295 -319 0
-295 -320 0
-295 -321 0
-295 -322 0
-295 -323 0
-295 -324 0
-295 -325 0
-295 -326 0
-295 -327 0
-295 -328 0
-295 -329 0
-295 -330 0
-295 -331 0
-295 -332 0
-295 -333 0
-295 -334 0
-295 -335 0
-295 -336 0
-295 -337 0
-295 -338 0
-295 -339 0
-295 -340 0
-295 -341 0
-295 -342 0
-295 -343 0
-295 -344 0
-295 -345 0
-295 -346 0
-295 -347 0
-295 -348 0
-295 -349 0
-295 -350 0
-295 -351 0
-295 -352 0
-295 -353 0
-295 -354 0
-295 -355 0
-295 -356 0
-295 -357 0
-295 -358 0
-295 -359 0
-295 -360 0
-295 -361 0
-295 -362 0
-295 -363 0
-295 -364 0
-295 -365 0
-295 -366 0
-295 -367 0
-295 -368 0
-295 -369 0
-295 -370 0
-295 -371 0
-295 -372 0
-295 -373 0
-295 -374 0
-295 -375 0
-295 -376 0
-295 -377 0
-295 -378 0
-295 -379 0
-295 -380 0
-295 -381 0
-295 -382 0
-295 -383 0
-295 -384 0
-296 -297 0
-296 -298 0
-296 -299 0
-296 -300 0
-296 -301 0
-296 -302 0
-296 -303 0
-296 -304 0
-296 -305 0
-296 -306 0
-296 -307 0
-296 -308 0
-296 -309 0
-296 -310 0
-296 -311 0
-296 -312 0
-296 -313 0
-296 -314 0
-296 -315 0
-296 -316 0
-296 -317 0
-296 -318 0
-296 -319 0
-296 -320 0
-296 -321 0
-296 -322 0
-296 -323 0
-296 -324 0
-296 -325 0
-296 -326 0
-296 -327 0
-296 -328 0
-296 -329 0
-296 -330 0
-296 -331 0
-296 -332 0
-296 -333 0
-296 -334 0
-296 -335 0
-296 -336 0
-296 -337 0
-296 -338 0
-296 -339 0
-296 -340 0
-296 -341 0
-296 -342 0
-296 -343 0
-296 -344 0
-296 -345 0
-296 -346 0
-296 -347 0
-296 -348 0
-296 -349 0
-296 -350 0
-296 -351 0
-296 -352 0
-296 -353 0
-296 -354 0
-296 -355 0
-296 -356 0
-296 -357 0
-296 -358 0
-296 -359 0
-296 -360 0
-296 -361 0
-296 -362 0
-296 -363 0
-296 -364 0
-296 -365 0
-296 -366 0
-296 -367 0
-296 -368 0
-296 -369 0
-296 -370 0
-296 -371 0
-296 -372 0
-296 -373 0
-296 -374 0
-296 -375 0
-296 -376 0
-296 -377 0
-296 -378 0
-296 -379 0
-296 -380 0
-296 -381 0
-296 -382 0
-296 -383 0
-296 -384 0
-297 -298 0
-297 -299 0
-297 -300 0
-297 -301 0
-297 -302 0
-297 -303 0
-297 -304 0
-297 -305 0
-297 -306 0
-297 -307 0
-297 -308 0
-297 -309 0
-297 -310 0
-297 -311 0
-297 -312 0
-297 -313 0
-297 -314 0
-297 -315 0
-297 -316 0
-297 -317 0
-297 -318 0
-297 -319 0
-297 -320 0
-297 -321 0
-297 -322 0
-297 -323 0
-297 -324 0
-297 -325 0
-297 -326 0
-297 -327 0
-297 -328 0
-297 -329 0
-297 -330 0
-297 -331 0
-297 -332 0
-297 -333 0
-297 -334 0
-297 -335 0
-297 -336 0
-297 -337 0
-297 -338 0
-297 -339 0
-297 -340 0
-297 -341 0
-297 -342 0
-297 -343 0
-297 -344 0
-297 -345 0
-297 -346 0
-297 -347 0
-297 -348 0
-297 -349 0
-297 -350 0
-297 -351 0
-297 -352 0
-297 -353 0
-297 -354 0
-297 -355 0
-297 -356 0
-297 -357 0
-297 -358 0
-297 -359 0
-297 -360 0
-297 -361 0
-297 -362 0
-297 -363 0
-297 -364 0
-297 -365 0
-297 -366 0
-297 -367 0
-297 -368 0
-297 -369 0
-297 -370 0
-297 -371 0
-297 -372 0
-297 -373 0
-297 -374 0
-297 -375 0
-297 -376 0
-297 -377 0
-297 -378 0
-297 -379 0
-297 -380 0
-297 -381 0
-297 -382 0
-297 -383 0
-297 -384 0
-298 -299 0
-298 -300 0
-298 -301 0
-298 -302 0
-298 -303 0
-298 -304 0
-298 -305 0
-298 -306 0
-298 -307 0
-298 -308 0
-298 -309 0
-298 -310 0
-298 -311 0
-298 -312 0
-298 -313 0
-298 -314 0
-298 -315 0
-298 -316 0
-298 -317 0
-298 -318 0
-298 -319 0
-298 -320 0
-298 -321 0
-298 -322 0
-298 -323 0
-298 -324 0
-298 -325 0
-298 -326 0
-298 -327 0
-298 -328 0
-298 -329 0
-298 -330 0
-298 -331 0
-298 -332 0
-298 -333 0
-298 -334 0
-298 -335 0
-298 -336 0
-298 -337 0
-298 -338 0
-298 -339 0
-298 -340 0
-298 -341 0
-298 -342 0
-298 -343 0
-298 -344 0
-298 -345 0
-298 -346 0
-298 -347 0
-298 -348 0
-298 -349 0
-298 -350 0
-298 -351 0
-298 -352 0
-298 -353 0
-298 -354 0
-298 -355 0
-298 -356 0
-298 -357 0
-298 -358 0
-298 -359 0
-298 -360 0
-298 -361 0
-298 -362 0
-298 -363 0
-298 -364 0
-298 -365 0
-298 -366 0
-298 -367 0
-298 -368 0
-298 -369 0
-298 -370 0
-298 -371 0
-298 -372 0
-298 -373 0
-298 -374 0
-298 -375 0
-298 -376 0
-298 -377 0
-298 -378 0
-298 -379 0
-298 -380 0
-298 -381 0
-298 -382 0
-298 -383 0
-298 -384 0
-299 -300 0
-299 -301 0
-299 -302 0
-299 -303 0
-299 -304 0
-299 -305 0
-299 -306 0
-299 -307 0
-299 -308 0
-299 -309 0
-299 -310 0
-299 -311 0
-299 -312 0
-299 -313 0
-299 -314 0
-299 -315 0
-299 -316 0
-299 -317 0
-299 -318 0
-299 -319 0
-299 -320 0
-299 -321 0
-299 -322 0
-299 -323 0
-299 -324 0
-299 -325 0
-299 -326 0
-299 -327 0
-299 -328 0
-299 -329 0
-299 -330 0
-299 -331 0
-299 -332 0
-299 -333 0
-299 -334 0
-299 -335 0
-299 -336 0
-299 -337 0
-299 -338 0
-299 -339 0
-299 -340 0
-299 -341 0
-299 -342 0
-299 -343 0
-299 -344 0
-299 -345 0
-299 -346 0
-299 -347 0
-299 -348 0
-299 -349 0
-299 -350 0
-299 -351 0
-299 -352 0
-299 -353 0
-299 -354 0
-299 -355 0
-299 -356 0
-299 -357 0
-299 -358 0
-299 -359 0
-299 -360 0
-299 -361 0
-299 -362 0
-299 -363 0
-299 -364 0
-299 -365 0
-299 -366 0
-299 -367 0
-299 -368 0
-299 -369 0
-299 -370 0
-299 -371 0
-299 -372 0
-299 -373 0
-299 -374 0
-299 -375 0
-299 -376 0
-299 -377 0
-299 -378 0
-299 -379 0
-299 -380 0
-299 -381 0
-299 -382 0
-299 -383 0
-299 -384 0
-300 -301 0
-300 -302 0
-300 -303 0
-300 -304 0
-300 -305 0
-300 -306 0
-300 -307 0
-300 -308 0
-300 -309 0
-300 -310 0
-300 -311 0
-300 -312 0
-300 -313 0
-300 -314 0
-300 -315 0
-300 -316 0
-300 -317 0
-300 -318 0
-300 -319 0
-300 -320 0
-300 -321 0
-300 -322 0
-300 -323 0
-300 -324 0
-300 -325 0
-300 -326 0
-300 -327 0
-300 -328 0
-300 -329 0
-300 -330 0
-300 -331 0
-300 -332 0
-300 -333 0
-300 -334 0
-300 -335 0
-300 -336 0
-300 -337 0
-300 -338 0
-300 -339 0
-300 -340 0
-300 -341 0
-300 -342 0
-300 -343 0
-300 -344 0
-300 -345 0
-300 -346 0
-300 -347 0
-300 -348 0
-300 -349 0
-300 -350 0
-300 -351 0
-300 -352 0
-300 -353 0
-300 -354 0
-300 -355 0
-300 -356 0
-300 -357 0
-300 -358 0
-300 -359 0
-300 -360 0
-300 -361 0
-300 -362 0
-300 -363 0
-300 -364 0
-300 -365 0
-300 -366 0
-300 -367 0
-300 -368 0
-300 -369 0
-300 -370 0
-300 -371 0
-300 -372 0
-300 -373 0
-300 -374 0
-300 -375 0
-300 -376 0
-300 -377 0
-300 -378 0
-300 -379 0
-300 -380 0
-300 -381 0
-300 -382 0
-300 -383 0
-300 -384 0
-301 -302 0
-301 -303 0
-301 -304 0
-301 -305 0
-301 -306 0
-301 -307 0
-301 -308 0
-301 -309 0
-301 -310 0
-301 -311 0
-301 -312 0
-301 -313 0
-301 -314 0
-301 -315 0
-301 -316 0
-301 -317 0
-301 -318 0
-301 -319 0
-301 -320 0
-301 -321 0
-301 -322 0
-301 -323 0
-301 -324 0
-301 -325 0
-301 -326 0
-301 -327 0
-301 -328 0
-301 -329 0
-301 -330 0
-301 -331 0
-301 -332 0
-301 -333 0
-301 -334 0
-301 -335 0
-301 -336 0
-301 -337 0
-301 -338 0
-301 -339 0
-301 -340 0
-301 -341 0
-301 -342 0
-301 -343 0
-301 -344 0
-301 -345 0
-301 -346 0
-301 -347 0
-301 -348 0
-301 -349 0
-301 -350 0
-301 -351 0
-301 -352 0
-301 -353 0
-301 -354 0
-301 -355 0
-301 -356 0
-301 -357 0
-301 -358 0
-301 -359 0
-301 -360 0
-301 -361 0
-301 -362 0
-301 -363 0
-301 -364 0
-301 -365 0
-301 -366 0
-301 -367 0
-301 -368 0
-301 -369 0
-301 -370 0
-301 -371 0
-301 -372 0
-301 -373 0
-301 -374 0
-301 -375 0
-301 -376 0
-301 -377 0
-301 -378 0
-301 -379 0
-301 -380 0
-301 -381 0
-301 -382 0
-301 -383 0
-301 -384 0
-302 -303 0
-302 -304 0
-302 -305 0
-302 -306 0
-302 -307 0
-302 -308 0
-302 -309 0
-302 -310 0
-302 -311 0
-302 -312 0
-302 -313 0
-302 -314 0
-302 -315 0
-302 -316 0
-302 -317 0
-302 -318 0
-302 -319 0
-302 -320 0
-302 -321 0
-302 -322 0
-302 -323 0
-302 -324 0
-302 -325 0
-302 -326 0
-302 -327 0
-302 -328 0
-302 -329 0
-302 -330 0
-302 -331 0
-302 -332 0
-302 -333 0
-302 -334 0
-302 -335 0
-302 -336 0
-302 -337 0
-302 -338 0
-302 -339 0
-302 -340 0
-302 -341 0
-302 -342 0
-302 -343 0
-302 -344 0
-302 -345 0
-302 -346 0
-302 -347 0
-302 -348 0
-302 -349 0
-302 -350 0
-302 -351 0
-302 -352 0
-302 -353 0
-302 -354 0
-302 -355 0
-302 -356 0
-302 -357 0
-302 -358 0
-302 -359 0
-302 -360 0
-302 -361 0
-302 -362 0
-302 -363 0
-302 -364 0
-302 -365 0
-302 -366 0
-302 -367 0
-302 -368 0
-302 -369 0
-302 -370 0
-302 -371 0
-302 -372 0
-302 -373 0
-302 -374 0
-302 -375 0
-302 -376 0
-302 -377 0
-302 -378 0
-302 -379 0
-302 -380 0
-302 -381 0
-302 -382 0
-302 -383 0
-302 -384 0
-303 -304 0
-303 -305 0
-303 -306 0
-303 -307 0
-303 -308 0
-303 -309 0
-303 -310 0
-303 -311 0
-303 -312 0
-303 -313 0
-303 -314 0
-303 -315 0
-303 -316 0
-303 -317 0
-303 -318 0
-303 -319 0
-303 -320 0
-303 -321 0
-303 -322 0
-303 -323 0
-303 -324 0
-303 -325 0
-303 -326 0
-303 -327 0
-303 -328 0
-303 -329 0
-303 -330 0
-303 -331 0
-303 -332 0
-303 -333 0
-303 -334 0
-303 -335 0
-303 -336 0
-303 -337 0
-303 -338 0
-303 -339 0
-303 -340 0
-303 -341 0
-303 -342 0
-303 -343 0
-303 -344 0
-303 -345 0
-303 -346 0
-303 -347 0
-303 -348 0
-303 -349 0
-303 -350 0
-303 -351 0
-303 -352 0
-303 -353 0
-303 -354 0
-303 -355 0
-303 -356 0
-303 -357 0
-303 -358 0
-303 -359 0
-303 -360 0
-303 -361 0
-303 -362 0
-303 -363 0
-303 -364 0
-303 -365 0
-303 -366 0
-303 -367 0
-303 -368 0
-303 -369 0
-303 -370 0
-303 -371 0
-303 -372 0
-303 -373 0
-303 -374 0
-303 -375 0
-303 -376 0
-303 -377 0
-303 -378 0
-303 -379 0
-303 -380 0
-303 -381 0
-303 -382 0
-303 -383 0
-303 -384 0
-304 -305 0
-304 -306 0
-304 -307 0
-304 -308 0
-304 -309 0
-304 -310 0
-304 -311 0
-304 -312 0
-304 -313 0
-304 -314 0
-304 -315 0
-304 -316 0
-304 -317 0
-304 -318 0
-304 -319 0
-304 -320 0
-304 -321 0
-304 -322 0
-304 -323 0
-304 -324 0
-304 -325 0
-304 -326 0
-304 -327 0
-304 -328 0
-304 -329 0
-304 -330 0
-304 -331 0
-304 -332 0
-304 -333 0
-304 -334 0
-304 -335 0
-304 -336 0
-304 -337 0
-304 -338 0
-304 -339 0
-304 -340 0
-304 -341 0
-304 -342 0
-304 -343 0
-304 -344 0
-304 -345 0
-304 -346 0
-304 -347 0
-304 -348 0
-304 -349 0
-304 -350 0
-304 -351 0
-304 -352 0
-304 -353 0
-304 -354 0
-304 -355 0
-304 -356 0
-304 -357 0
-304 -358 0
-304 -359 0
-304 -360 0
-304 -361 0
-304 -362 0
-304 -363 0
-304 -364 0
-304 -365 0
-304 -366 0
-304 -367 0
-304 -368 0
-304 -369 0
-304 -370 0
-304 -371 0
-304 -372 0
-304 -373 0
-304 -374 0
-304 -375 0
-304 -376 0
-304 -377 0
-304 -378 0
-304 -379 0
-304 -380 0
-304 -381 0
-304 -382 0
-304 -383 0
-304 -384 0
-305 -306 0
-305 -307 0
-305 -308 0
-305 -309 0
-305 -310 0
-305 -311 0
-305 -312 0
-305 -313 0
-305 -314 0
-305 -315 0
-305 -316 0
-305 -317 0
-305 -318 0
-305 -319 0
-305 -320 0
-305 -321 0
-305 -322 0
-305 -323 0
-305 -324 0
-305 -325 0
-305 -326 0
-305 -327 0
-305 -328 0
-305 -329 0
-305 -330 0
-305 -331 0
-305 -332 0
-305 -333 0
-305 -334 0
-305 -335 0
-305 -336 0
-305 -337 0
-305 -338 0
-305 -339 0
-305 -340 0
-305 -341 0
-305 -342 0
-305 -343 0
-305 -344 0
-305 -345 0
-305 -346 0
-305 -347 0
-305 -348 0
-305 -349 0
-305 -350 0
-305 -351 0
-305 -352 0
-305 -353 0
-305 -354 0
-305 -355 0
-305 -356 0
-305 -357 0
-305 -358 0
-305 -359 0
-305 -360 0
-305 -361 0
-305 -362 0
-305 -363 0
-305 -364 0
-305 -365 0
-305 -366 0
-305 -367 0
-305 -368 0
-305 -369 0
-305 -370 0
-305 -371 0
-305 -372 0
-305 -373 0
-305 -374 0
-305 -375 0
-305 -376 0
-305 -377 0
-305 -378 0
-305 -379 0
-305 -380 0
-305 -381 0
-305 -382 0
-305 -383 0
-305 -384 0
-306 -307 0
-306 -308 0
-306 -309 0
-306 -310 0
-306 -311 0
-306 -312 0
-306 -313 0
-306 -314 0
-306 -315 0
-306 -316 0
-306 -317 0
-306 -318 0
-306 -319 0
-306 -320 0
-306 -321 0
-306 -322 0
-306 -323 0
-306 -324 0
-306 -325 0
-306 -326 0
-306 -327 0
-306 -328 0
-306 -329 0
-306 -330 0
-306 -331 0
-306 -332 0
-306 -333 0
-306 -334 0
-306 -335 0
-306 -336 0
-306 -337 0
-306 -338 0
-306 -339 0
-306 -340 0
-306 -341 0
-306 -342 0
-306 -343 0
-306 -344 0
-306 -345 0
-306 -346 0
-306 -347 0
-306 -348 0
-306 -349 0
-306 -350 0
-306 -351 0
-306 -352 0
-306 -353 0
-306 -354 0
-306 -355 0
-306 -356 0
-306 -357 0
-306 -358 0
-306 -359 0
-306 -360 0
-306 -361 0
-306 -362 0
-306 -363 0
-306 -364 0
-306 -365 0
-306 -366 0
-306 -367 0
-306 -368 0
-306 -369 0
-306 -370 0
-306 -371 0
-306 -372 0
-306 -373 0
-306 -374 0
-306 -375 0
-306 -376 0
-306 -377 0
-306 -378 0
-306 -379 0
-306 -380 0
-306 -381 0
-306 -382 0
-306 -383 0
-306 -384 0
-307 -308 0
-307 -309 0
-307 -310 0
-307 -311 0
-307 -312 0
-307 -313 0
-307 -314 0
-307 -315 0
-307 -316 0
-307 -317 0
-307 -318 0
-307 -319 0
-307 -320 0
-307 -321 0
-307 -322 0
-307 -323 0
-307 -324 0
-307 -325 0
-307 -326 0
-307 -327 0
-307 -328 0
-307 -329 0
-307 -330 0
-307 -331 0
-307 -332 0
-307 -333 0
-307 -334 0
-307 -335 0
-307 -336 0
-307 -337 0
-307 -338 0
-307 -339 0
-307 -340 0
-307 -341 0
-307 -342 0
-307 -343 0
-307 -344 0
-307 -345 0
-307 -346 0
-307 -347 0
-307 -348 0
-307 -349 0
-307 -350 0
-307 -351 0
-307 -352 0
-307 -353 0
-307 -354 0
-307 -355 0
-307 -356 0
-307 -357 0
-307 -358 0
-307 -359 0
-307 -360 0
-307 -361 0
-307 -362 0
-307 -363 0
-307 -364 0
-307 -365 0
-307 -366 0
-307 -367 0
-307 -368 0
-307 -369 0
-307 -370 0
-307 -371 0
-307 -372 0
-307 -373 0
-307 -374 0
-307 -375 0
-307 -376 0
-307 -377 0
-307 -378 0
-307 -379 0
-307 -380 0
-307 -381 0
-307 -382 0
-307 -383 0
-307 -384 0
-308 -309 0
-308 -310 0
-308 -311 0
-308 -312 0
-308 -313 0
-308 -314 0
-308 -315 0
-308 -316 0
-308 -317 0
-308 -318 0
-308 -319 0
-308 -320 0
-308 -321 0
-308 -322 0
-308 -323 0
-308 -324 0
-308 -325 0
-308 -326 0
-308 -327 0
-308 -328 0
-308 -329 0
-308 -330 0
-308 -331 0
-308 -332 0
-308 -333 0
-308 -334 0
-308 -335 0
-308 -336 0
-308 -337 0
-308 -338 0
-308 -339 0
-308 -340 0
-308 -341 0
-308 -342 0
-308 -343 0
-308 -344 0
-308 -345 0
-308 -346 0
-308 -347 0
-308 -348 0
-308 -349 0
-308 -350 0
-308 -351 0
-308 -352 0
-308 -353 0
-308 -354 0
-308 -355 0
-308 -356 0
-308 -357 0
-308 -358 0
-308 -359 0
-308 -360 0
-308 -361 0
-308 -362 0
-308 -363 0
-308 -364 0
-308 -365 0
-308 -366 0
-308 -367 0
-308 -368 0
-308 -369 0
-308 -370 0
-308 -371 0
-308 -372 0
-308 -373 0
-308 -374 0
-308 -375 0
-308 -376 0
-308 -377 0
-308 -378 0
-308 -379 0
-308 -380 0
-308 -381 0
-308 -382 0
-308 -383 0
-308 -384 0
-309 -310 0
-309 -311 0
-309 -312 0
-309 -313 0
-309 -314 0
-309 -315 0
-309 -316 0
-309 -317 0
-309 -318 0
-309 -319 0
-309 -320 0
-309 -321 0
-309 -322 0
-309 -323 0
-309 -324 0
-309 -325 0
-309 -326 0
-309 -327 0
-309 -328 0
-309 -329 0
-309 -330 0
-309 -331 0
-309 -332 0
-309 -333 0
-309 -334 0
-309 -335 0
-309 -336 0
-309 -337 0
-309 -338 0
-309 -339 0
-309 -340 0
-309 -341 0
-309 -342 0
-309 -343 0
-309 -344 0
-309 -345 0
-309 -346 0
-309 -347 0
-309 -348 0
-309 -349 0
-309 -350 0
-309 -351 0
-309 -352 0
-309 -353 0
-309 -354 0
-309 -355 0
-309 -356 0
-309 -357 0
-309 -358 0
-309 -359 0
-309 -360 0
-309 -361 0
-309 -362 0
-309 -363 0
-309 -364 0
-309 -365 0
-309 -366 0
-309 -367 0
-309 -368 0
-309 -369 0
-309 -370 0
-309 -371 0
-309 -372 0
-309 -373 0
-309 -374 0
-309 -375 0
-309 -376 0
-309 -377 0
-309 -378 0
-309 -379 0
-309 -380 0
-309 -381 0
-309 -382 0
-309 -383 0
-309 -384 0
-310 -311 0
-310 -312 0
-310 -313 0
-310 -314 0
-310 -315 0
-310 -316 0
-310 -317 0
-310 -318 0
-310 -319 0
-310 -320 0
-310 -321 0
-310 -322 0
-310 -323 0
-310 -324 0
-310 -325 0
-310 -326 0
-310 -327 0
-310 -328 0
-310 -329 0
-310 -330 0
-310 -331 0
-310 -332 0
-310 -333 0
-310 -334 0
-310 -335 0
-310 -336 0
-310 -337 0
-310 -338 0
-310 -339 0
-310 -340 0
-310 -341 0
-310 -342 0
-310 -343 0
-310 -344 0
-310 -345 0
-310 -346 0
-310 -347 0
-310 -348 0
-310 -349 0
-310 -350 0
-310 -351 0
-310 -352 0
-310 -353 0
-310 -354 0
-310 -355 0
-310 -356 0
-310 -357 0
-310 -358 0
-310 -359 0
-310 -360 0
-310 -361 0
-310 -362 0
-310 -363 0
-310 -364 0
-310 -365 0
-310 -366 0
-310 -367 0
-310 -368 0
-310 -369 0
-310 -370 0
-310 -371 0
-310 -372 0
-310 -373 0
-310 -374 0
-310 -375 0
-310 -376 0
-310 -377 0
-310 -378 0
-310 -379 0
-310 -380 0
-310 -381 0
-310 -382 0
-310 -383 0
-310 -384 0
-311 -312 0
-311 -313 0
-311 -314 0
-311 -315 0
-311 -316 0
-311 -317 0
-311 -318 0
-311 -319 0
-311 -320 0
-311 -321 0
-311 -322 0
-311 -323 0
-311 -324 0
-311 -325 0
-311 -326 0
-311 -327 0
-311 -328 0
-311 -329 0
-311 -330 0
-311 -331 0
-311 -332 0
-311 -333 0
-311 -334 0
-311 -335 0
-311 -336 0
-311 -337 0
-311 -338 0
-311 -339 0
-311 -340 0
-311 -341 0
-311 -342 0
-311 -343 0
-311 -344 0
-311 -345 0
-311 -346 0
-311 -347 0
-311 -348 0
-311 -349 0
-311 -350 0
-311 -351 0
-311 -352 0
-311 -353 0
-311 -354 0
-311 -355 0
-311 -356 0
-311 -357 0
-311 -358 0
-311 -359 0
-311 -360 0
-311 -361 0
-311 -362 0
-311 -363 0
-311 -364 0
-311 -365 0
-311 -366 0
-311 -367 0
-311 -368 0
-311 -369 0
-311 -370 0
-311 -371 0
-311 -372 0
-311 -373 0
-311 -374 0
-311 -375 0
-311 -376 0
-311 -377 0
-311 -378 0
-311 -379 0
-311 -380 0
-311 -381 0
-311 -382 0
-311 -383 0
-311 -384 0
-312 -313 0
-312 -314 0
-312 -315 0
-312 -316 0
-312 -317 0
-312 -318 0
-312 -319 0
-312 -320 0
-312 -321 0
-312 -322 0
-312 -323 0
-312 -324 0
-312 -325 0
-312 -326 0
-312 -327 0
-312 -328 0
-312 -329 0
-312 -330 0
-312 -331 0
-312 -332 0
-312 -333 0
-312 -334 0
-312 -335 0
-312 -336 0
-312 -337 0
-312 -338 0
-312 -339 0
-312 -340 0
-312 -341 0
-312 -342 0
-312 -343 0
-312 -344 0
-312 -345 0
-312 -346 0
-312 -347 0
-312 -348 0
-312 -349 0
-312 -350 0
-312 -351 0
-312 -352 0
-312 -353 0
-312 -354 0
-312 -355 0
-312 -356 0
-312 -357 0
-312 -358 0
-312 -359 0
-312 -360 0
-312 -361 0
-312 -362 0
-312 -363 0
-312 -364 0
-312 -365 0
-312 -366 0
-312 -367 0
-312 -368 0
-312 -369 0
-312 -370 0
-312 -371 0
-312 -372 0
-312 -373 0
-312 -374 0
-312 -375 0
-312 -376 0
-312 -377 0
-312 -378 0
-312 -379 0
-312 -380 0
-312 -381 0
-312 -382 0
-312 -383 0
-312 -384 0
-313 -314 0
-313 -315 0
-313 -316 0
-313 -317 0
-313 -318 0
-313 -319 0
-313 -320 0
-313 -321 0
-313 -322 0
-313 -323 0
-313 -324 0
-313 -325 0
-313 -326 0
-313 -327 0
-313 -328 0
-313 -329 0
-313 -330 0
-313 -331 0
-313 -332 0
-313 -333 0
-313 -334 0
-313 -335 0
-313 -336 0
-313 -337 0
-313 -338 0
-313 -339 0
-313 -340 0
-313 -341 0
-313 -342 0
-313 -343 0
-313 -344 0
-313 -345 0
-313 -346 0
-313 -347 0
-313 -348 0
-313 -349 0
-313 -350 0
-313 -351 0
-313 -352 0
-313 -353 0
-313 -354 0
-313 -355 0
-313 -356 0
-313 -357 0
-313 -358 0
-313 -359 0
-313 -360 0
-313 -361 0
-313 -362 0
-313 -363 0
-313 -364 0
-313 -365 0
-313 -366 0
-313 -367 0
-313 -368 0
-313 -369 0
-313 -370 0
-313 -371 0
-313 -372 0
-313 -373 0
-313 -374 0
-313 -375 0
-313 -376 0
-313 -377 0
-313 -378 0
-313 -379 0
-313 -380 0
-313 -381 0
-313 -382 0
-313 -383 0
-313 -384 0
-314 -315 0
-314 -316 0
-314 -317 0
-314 -318 0
-314 -319 0
-314 -320 0
-314 -321 0
-314 -322 0
-314 -323 0
-314 -324 0
-314 -325 0
-314 -326 0
-314 -327 0
-314 -328 0
-314 -329 0
-314 -330 0
-314 -331 0
-314 -332 0
-314 -333 0
-314 -334 0
-314 -335 0
-314 -336 0
-314 -337 0
-314 -338 0
-314 -339 0
-314 -340 0
-314 -341 0
-314 -342 0
-314 -343 0
-314 -344 0
-314 -345 0
-314 -346 0
-314 -347 0
-314 -348 0
-314 -349 0
-314 -350 0
-314 -351 0
-314 -352 0
-314 -353 0
-314 -354 0
-314 -355 0
-314 -356 0
-314 -357 0
-314 -358 0
-314 -359 0
-314 -360 0
-314 -361 0
-314 -362 0
-314 -363 0
-314 -364 0
-314 -365 0
-314 -366 0
-314 -367 0
-314 -368 0
-314 -369 0
-314 -370 0
-314 -371 0
-314 -372 0
-314 -373 0
-314 -374 0
-314 -375 0
-314 -376 0
-314 -377 0
-314 -378 0
-314 -379 0
-314 -380 0
-314 -381 0
-314 -382 0
-314 -383 0
-314 -384 0
-315 -316 0
-315 -317 0
-315 -318 0
-315 -319 0
-315 -320 0
-315 -321 0
-315 -322 0
-315 -323 0
-315 -324 0
-315 -325 0
-315 -326 0
-315 -327 0
-315 -328 0
-315 -329 0
-315 -330 0
-315 -331 0
-315 -332 0
-315 -333 0
-315 -334 0
-315 -335 0
-315 -336 0
-315 -337 0
-315 -338 0
-315 -339 0
-315 -340 0
-315 -341 0
-315 -342 0
-315 -343 0
-315 -344 0
-315 -345 0
-315 -346 0
-315 -347 0
-315 -348 0
-315 -349 0
-315 -350 0
-315 -351 0
-315 -352 0
-315 -353 0
-315 -354 0
-315 -355 0
-315 -356 0
-315 -357 0
-315 -358 0
-315 -359 0
-315 -360 0
-315 -361 0
-315 -362 0
-315 -363 0
-315 -364 0
-315 -365 0
-315 -366 0
-315 -367 0
-315 -368 0
-315 -369 0
-315 -370 0
-315 -371 0
-315 -372 0
-315 -373 0
-315 -374 0
-315 -375 0
-315 -376 0
-315 -377 0
-315 -378 0
-315 -379 0
-315 -380 0
-315 -381 0
-315 -382 0
-315 -383 0
-315 -384 0
-316 -317 0
-316 -318 0
-316 -319 0
-316 -320 0
-316 -321 0
-316 -322 0
-316 -323 0
-316 -324 0
-316 -325 0
-316 -326 0
-316 -327 0
-316 -328 0
-316 -329 0
-316 -330 0
-316 -331 0
-316 -332 0
-316 -333 0
-316 -334 0
-316 -335 0
-316 -336 0
-316 -337 0
-316 -338 0
-316 -339 0
-316 -340 0
-316 -341 0
-316 -342 0
-316 -343 0
-316 -344 0
-316 -345 0
-316 -346 0
-316 -347 0
-316 -348 0
-316 -349 0
-316 -350 0
-316 -351 0
-316 -352 0
-316 -353 0
-316 -354 0
-316 -355 0
-316 -356 0
-316 -357 0
-316 -358 0
-316 -359 0
-316 -360 0
-316 -361 0
-316 -362 0
-316 -363 0
-316 -364 0
-316 -365 0
-316 -366 0
-316 -367 0
-316 -368 0
-316 -369 0
-316 -370 0
-316 -371 0
-316 -372 0
-316 -373 0
-316 -374 0
-316 -375 0
-316 -376 0
-316 -377 0
-316 -378 0
-316 -379 0
-316 -380 0
-316 -381 0
-316 -382 0
-316 -383 0
-316 -384 0
-317 -318 0
-317 -319 0
-317 -320 0
-317 -321 0
-317 -322 0
-317 -323 0
-317 -324 0
-317 -325 0
-317 -326 0
-317 -327 0
-317 -328 0
-317 -329 0
-317 -330 0
-317 -331 0
-317 -332 0
-317 -333 0
-317 -334 0
-317 -335 0
-317 -336 0
-317 -337 0
-317 -338 0
-317 -339 0
-317 -340 0
-317 -341 0
-317 -342 0
-317 -343 0
-317 -344 0
-317 -345 0
-317 -346 0
-317 -347 0
-317 -348 0
-317 -349 0
-317 -350 0
-317 -351 0
-317 -352 0
-317 -353 0
-317 -354 0
-317 -355 0
-317 -356 0
-317 -357 0
-317 -358 0
-317 -359 0
-317 -360 0
-317 -361 0
-317 -362 0
-317 -363 0
-317 -364 0
-317 -365 0
-317 -366 0
-317 -367 0
-317 -368 0
-317 -369 0
-317 -370 0
-317 -371 0
-317 -372 0
-317 -373 0
-317 -374 0
-317 -375 0
-317 -376 0
-317 -377 0
-317 -378 0
-317 -379 0
-317 -380 0
-317 -381 0
-317 -382 0
-317 -383 0
-317 -384 0
-318 -319 0
-318 -320 0
-318 -321 0
-318 -322 0
-318 -323 0
-318 -324 0
-318 -325 0
-318 -326 0
-318 -327 0
-318 -328 0
-318 -329 0
-318 -330 0
-318 -331 0
-318 -332 0
-318 -333 0
-318 -334 0
-318 -335 0
-318 -336 0
-318 -337 0
-318 -338 0
-318 -339 0
-318 -340 0
-318 -341 0
-318 -342 0
-318 -343 0
-318 -344 0
-318 -345 0
-318 -346 0
-318 -347 0
-318 -348 0
-318 -349 0
-318 -350 0
-318 -351 0
-318 -352 0
-318 -353 0
-318 -354 0
-318 -355 0
-318 -356 0
-318 -357 0
-318 -358 0
-318 -359 0
-318 -360 0
-318 -361 0
-318 -362 0
-318 -363 0
-318 -364 0
-318 -365 0
-318 -366 0
-318 -367 0
-318 -368 0
-318 -369 0
-318 -370 0
-318 -371 0
-318 -372 0
-318 -373 0
-318 -374 0
-318 -375 0
-318 -376 0
-318 -377 0
-318 -378 0
-318 -379 0
-318 -380 0
-318 -381 0
-318 -382 0
-318 -383 0
-318 -384 0
-319 -320 0
-319 -321 0
-319 -322 0
-319 -323 0
-319 -324 0
-319 -325 0
-319 -326 0
-319 -327 0
-319 -328 0
-319 -329 0
-319 -330 0
-319 -331 0
-319 -332 0
-319 -333 0
-319 -334 0
-319 -335 0
-319 -336 0
-319 -337 0
-319 -338 0
-319 -339 0
-319 -340 0
-319 -341 0
-319 -342 0
-319 -343 0
-319 -344 0
-319 -345 0
-319 -346 0
-319 -347 0
-319 -348 0
-319 -349 0
-319 -350 0
-319 -351 0
-319 -352 0
-319 -353 0
-319 -354 0
-319 -355 0
-319 -356 0
-319 -357 0
-319 -358 0
-319 -359 0
-319 -360 0
-319 -361 0
-319 -362 0
-319 -363 0
-319 -364 0
-319 -365 0
-319 -366 0
-319 -367 0
-319 -368 0
-319 -369 0
-319 -370 0
-319 -371 0
-319 -372 0
-319 -373 0
-319 -374 0
-319 -375 0
-319 -376 0
-319 -377 0
-319 -378 0
-319 -379 0
-319 -380 0
-319 -381 0
-319 -382 0
-319 -383 0
-319 -384 0
-320 -321 0
-320 -322 0
-320 -323 0
-320 -324 0
-320 -325 0
-320 -326 0
-320 -327 0
-320 -328 0
-320 -329 0
-320 -330 0
-320 -331 0
-320 -332 0
-320 -333 0
-320 -334 0
-320 -335 0
-320 -336 0
-320 -337 0
-320 -338 0
-320 -339 0
-320 -340 0
-320 -341 0
-320 -342 0
-320 -343 0
-320 -344 0
-320 -345 0
-320 -346 0
-320 -347 0
-320 -348 0
-320 -349 0
-320 -350 0
-320 -351 0
-320 -352 0
-320 -353 0
-320 -354 0
-320 -355 0
-320 -356 0
-320 -357 0
-320 -358 0
-320 -359 0
-320 -360 0
-320 -361 0
-320 -362 0
-320 -363 0
-320 -364 0
-320 -365 0
-320 -366 0
-320 -367 0
-320 -368 0
-320 -369 0
-320 -370 0
-320 -371 0
-320 -372 0
-320 -373 0
-320 -374 0
-320 -375 0
-320 -376 0
-320 -377 0
-320 -378 0
-320 -379 0
-320 -380 0
-320 -381 0
-320 -382 0
-320 -383 0
-320 -384 0
-321 -322 0
-321 -323 0
-321 -324 0
-321 -325 0
-321 -326 0
-321 -327 0
-321 -328 0
-321 -329 0
-321 -330 0
-321 -331 0
-321 -332 0
-321 -333 0
-321 -334 0
-321 -335 0
-321 -336 0
-321 -337 0
-321 -338 0
-321 -339 0
-321 -340 0
-321 -341 0
-321 -342 0
-321 -343 0
-321 -344 0
-321 -345 0
-321 -346 0
-321 -347 0
-321 -348 0
-321 -349 0
-321 -350 0
-321 -351 0
-321 -352 0
-321 -353 0
-321 -354 0
-321 -355 0
-321 -356 0
-321 -357 0
-321 -358 0
-321 -359 0
-321 -360 0
-321 -361 0
-321 -362 0
-321 -363 0
-321 -364 0
-321 -365 0
-321 -366 0
-321 -367 0
-321 -368 0
-321 -369 0
-321 -370 0
-321 -371 0
-321 -372 0
-321 -373 0
-321 -374 0
-321 -375 0
-321 -376 0
-321 -377 0
-321 -378 0
-321 -379 0
-321 -380 0
-321 -381 0
-321 -382 0
-321 -383 0
-321 -384 0
-322 -323 0
-322 -324 0
-322 -325 0
-322 -326 0
-322 -327 0
-322 -328 0
-322 -329 0
-322 -330 0
-322 -331 0
-322 -332 0
-322 -333 0
-322 -334 0
-322 -335 0
-322 -336 0
-322 -337 0
-322 -338 0
-322 -339 0
-322 -340 0
-322 -341 0
-322 -342 0
-322 -343 0
-322 -344 0
-322 -345 0
-322 -346 0
-322 -347 0
-322 -348 0
-322 -349 0
-322 -350 0
-322 -351 0
-322 -352 0
-322 -353 0
-322 -354 0
-322 -355 0
-322 -356 0
-322 -357 0
-322 -358 0
-322 -359 0
-322 -360 0
-322 -361 0
-322 -362 0
-322 -363 0
-322 -364 0
-322 -365 0
-322 -366 0
-322 -367 0
-322 -368 0
-322 -369 0
-322 -370 0
-322 -371 0
-322 -372 0
-322 -373 0
-322 -374 0
-322 -375 0
-322 -376 0
-322 -377 0
-322 -378 0
-322 -379 0
-322 -380 0
-322 -381 0
-322 -382 0
-322 -383 0
-322 -384 0
-323 -324 0
-323 -325 0
-323 -326 0
-323 -327 0
-323 -328 0
-323 -329 0
-323 -330 0
-323 -331 0
-323 -332 0
-323 -333 0
-323 -334 0
-323 -335 0
-323 -336 0
-323 -337 0
-323 -338 0
-323 -339 0
-323 -340 0
-323 -341 0
-323 -342 0
-323 -343 0
-323 -344 0
-323 -345 0
-323 -346 0
-323 -347 0
-323 -348 0
-323 -349 0
-323 -350 0
-323 -351 0
-323 -352 0
-323 -353 0
-323 -354 0
-323 -355 0
-323 -356 0
-323 -357 0
-323 -358 0
-323 -359 0
-323 -360 0
-323 -361 0
-323 -362 0
-323 -363 0
-323 -364 0
-323 -365 0
-323 -366 0
-323 -367 0
-323 -368 0
-323 -369 0
-323 -370 0
-323 -371 0
-323 -372 0
-323 -373 0
-323 -374 0
-323 -375 0
-323 -376 0
-323 -377 0
-323 -378 0
-323 -379 0
-323 -380 0
-323 -381 0
-323 -382 0
-323 -383 0
-323 -384 0
-324 -325 0
-324 -326 0
-324 -327 0
-324 -328 0
-324 -329 0
-324 -330 0
-324 -331 0
-324 -332 0
-324 -333 0
-324 -334 0
-324 -335 0
-324 -336 0
-324 -337 0
-324 -338 0
-324 -339 0
-324 -340 0
-324 -341 0
-324 -342 0
-324 -343 0
-324 -344 0
-324 -345 0
-324 -346 0
-324 -347 0
-324 -348 0
-324 -349 0
-324 -350 0
-324 -351 0
-324 -352 0
-324 -353 0
-324 -354 0
-324 -355 0
-324 -356 0
-324 -357 0
-324 -358 0
-324 -359 0
-324 -360 0
-324 -361 0
-324 -362 0
-324 -363 0
-324 -364 0
-324 -365 0
-324 -366 0
-324 -367 0
-324 -368 0
-324 -369 0
-324 -370 0
-324 -371 0
-324 -372 0
-324 -373 0
-324 -374 0
-324 -375 0
-324 -376 0
-324 -377 0
-324 -378 0
-324 -379 0
-324 -380 0
-324 -381 0
-324 -382 0
-324 -383 0
-324 -384 0
-325 -326 0
-325 -327 0
-325 -328 0
-325 -329 0
-325 -330 0
-325 -331 0
-325 -332 0
-325 -333 0
-325 -334 0
-325 -335 0
-325 -336 0
-325 -337 0
-325 -338 0
-325 -339 0
-325 -340 0
-325 -341 0
-325 -342 0
-325 -343 0
-325 -344 0
-325 -345 0
-325 -346 0
-325 -347 0
-325 -348 0
-325 -349 0
-325 -350 0
-325 -351 0
-325 -352 0
-325 -353 0
-325 -354 0
-325 -355 0
-325 -356 0
-325 -357 0
-325 -358 0
-325 -359 0
-325 -360 0
-325 -361 0
-325 -362 0
-325 -363 0
-325 -364 0
-325 -365 0
-325 -366 0
-325 -367 0
-325 -368 0
-325 -369 0
-325 -370 0
-325 -371 0
-325 -372 0
-325 -373 0
-325 -374 0
-325 -375 0
-325 -376 0
-325 -377 0
-325 -378 0
-325 -379 0
-325 -380 0
-325 -381 0
-325 -382 0
-325 -383 0
-325 -384 0
-326 -327 0
-326 -328 0
-326 -329 0
-326 -330 0
-326 -331 0
-326 -332 0
-326 -333 0
-326 -334 0
-326 -335 0
-326 -336 0
-326 -337 0
-326 -338 0
-326 -339 0
-326 -340 0
-326 -341 0
-326 -342 0
-326 -343 0
-326 -344 0
-326 -345 0
-326 -346 0
-326 -347 0
-326 -348 0
-326 -349 0
-326 -350 0
-326 -351 0
-326 -352 0
-326 -353 0
-326 -354 0
-326 -355 0
-326 -356 0
-326 -357 0
-326 -358 0
-326 -359 0
-326 -360 0
-326 -361 0
-326 -362 0
-326 -363 0
-326 -364 0
-326 -365 0
-326 -366 0
-326 -367 0
-326 -368 0
-326 -369 0
-326 -370 0
-326 -371 0
-326 -372 0
-326 -373 0
-326 -374 0
-326 -375 0
-326 -376 0
-326 -377 0
-326 -378 0
-326 -379 0
-326 -380 0
-326 -381 0
-326 -382 0
-326 -383 0
-326 -384 0
-327 -328 0
-327 -329 0
-327 -330 0
-327 -331 0
-327 -332 0
-327 -333 0
-327 -334 0
-327 -335 0
-327 -336 0
-327 -337 0
-327 -338 0
-327 -339 0
-327 -340 0
-327 -341 0
-327 -342 0
-327 -343 0
-327 -344 0
-327 -345 0
-327 -346 0
-327 -347 0
-327 -348 0
-327 -349 0
-327 -350 0
-327 -351 0
-327 -352 0
-327 -353 0
-327 -354 0
-327 -355 0
-327 -356 0
-327 -357 0
-327 -358 0
-327 -359 0
-327 -360 0
-327 -361 0
-327 -362 0
-327 -363 0
-327 -364 0
-327 -365 0
-327 -366 0
-327 -367 0
-327 -368 0
-327 -369 0
-327 -370 0
-327 -371 0
-327 -372 0
-327 -373 0
-327 -374 0
-327 -375 0
-327 -376 0
-327 -377 0
-327 -378 0
-327 -379 0
-327 -380 0
-327 -381 0
-327 -382 0
-327 -383 0
-327 -384 0
-328 -329 0
-328 -330 0
-328 -331 0
-328 -332 0
-328 -333 0
-328 -334 0
-328 -335 0
-328 -336 0
-328 -337 0
-328 -338 0
-328 -339 0
-328 -340 0
-328 -341 0
-328 -342 0
-328 -343 0
-328 -344 0
-328 -345 0
-328 -346 0
-328 -347 0
-328 -348 0
-328 -349 0
-328 -350 0
-328 -351 0
-328 -352 0
-328 -353 0
-328 -354 0
-328 -355 0
-328 -356 0
-328 -357 0
-328 -358 0
-328 -359 0
-328 -360 0
-328 -361 0
-328 -362 0
-328 -363 0
-328 -364 0
-328 -365 0
-328 -366 0
-328 -367 0
-328 -368 0
-328 -369 0
-328 -370 0
-328 -371 0
-328 -372 0
-328 -373 0
-328 -374 0
-328 -375 0
-328 -376 0
-328 -377 0
-328 -378 0
-328 -379 0
-328 -380 0
-328 -381 0
-328 -382 0
-328 -383 0
-328 -384 0
-329 -330 0
-329 -331 0
-329 -332 0
-329 -333 0
-329 -334 0
-329 -335 0
-329 -336 0
-329 -337 0
-329 -338 0
-329 -339 0
-329 -340 0
-329 -341 0
-329 -342 0
-329 -343 0
-329 -344 0
-329 -345 0
-329 -346 0
-329 -347 0
-329 -348 0
-329 -349 0
-329 -350 0
-329 -351 0
-329 -352 0
-329 -353 0
-329 -354 0
-329 -355 0
-329 -356 0
-329 -357 0
-329 -358 0
-329 -359 0
-329 -360 0
-329 -361 0
-329 -362 0
-329 -363 0
-329 -364 0
-329 -365 0
-329 -366 0
-329 -367 0
-329 -368 0
-329 -369 0
-329 -370 0
-329 -371 0
-329 -372 0
-329 -373 0
-329 -374 0
-329 -375 0
-329 -376 0
-329 -377 0
-329 -378 0
-329 -379 0
-329 -380 0
-329 -381 0
-329 -382 0
-329 -383 0
-329 -384 0
-330 -331 0
-330 -332 0
-330 -333 0
-330 -334 0
-330 -335 0
-330 -336 0
-330 -337 0
-330 -338 0
-330 -339 0
-330 -340 0
-330 -341 0
-330 -342 0
-330 -343 0
-330 -344 0
-330 -345 0
-330 -346 0
-330 -347 0
-330 -348 0
-330 -349 0
-330 -350 0
-330 -351 0
-330 -352 0
-330 -353 0
-330 -354 0
-330 -355 0
-330 -356 0
-330 -357 0
-330 -358 0
-330 -359 0
-330 -360 0
-330 -361 0
-330 -362 0
-330 -363 0
-330 -364 0
-330 -365 0
-330 -366 0
-330 -367 0
-330 -368 0
-330 -369 0
-330 -370 0
-330 -371 0
-330 -372 0
-330 -373 0
-330 -374 0
-330 -375 0
-330 -376 0
-330 -377 0
-330 -378 0
-330 -379 0
-330 -380 0
-330 -381 0
-330 -382 0
-330 -383 0
-330 -384 0
-331 -332 0
-331 -333 0
-331 -334 0
-331 -335 0
-331 -336 0
-331 -337 0
-331 -338 0
-331 -339 0
-331 -340 0
-331 -341 0
-331 -342 0
-331 -343 0
-331 -344 0
-331 -345 0
-331 -346 0
-331 -347 0
-331 -348 0
-331 -349 0
-331 -350 0
-331 -351 0
-331 -352 0
-331 -353 0
-331 -354 0
-331 -355 0
-331 -356 0
-331 -357 0
-331 -358 0
-331 -359 0
-331 -360 0
-331 -361 0
-331 -362 0
-331 -363 0
-331 -364 0
-331 -365 0
-331 -366 0
-331 -367 0
-331 -368 0
-331 -369 0
-331 -370 0
-331 -371 0
-331 -372 0
-331 -373 0
-331 -374 0
-331 -375 0
-331 -376 0
-331 -377 0
-331 -378 0
-331 -379 0
-331 -380 0
-331 -381 0
-331 -382 0
-331 -383 0
-331 -384 0
-332 -333 0
-332 -334 0
-332 -335 0
-332 -336 0
-332 -337 0
-332 -338 0
-332 -339 0
-332 -340 0
-332 -341 0
-332 -342 0
-332 -343 0
-332 -344 0
-332 -345 0
-332 -346 0
-332 -347 0
-332 -348 0
-332 -349 0
-332 -350 0
-332 -351 0
-332 -352 0
-332 -353 0
-332 -354 0
-332 -355 0
-332 -356 0
-332 -357 0
-332 -358 0
-332 -359 0
-332 -360 0
-332 -361 0
-332 -362 0
-332 -363 0
-332 -364 0
-332 -365 0
-332 -366 0
-332 -367 0
-332 -368 0
-332 -369 0
-332 -370 0
-332 -371 0
-332 -372 0
-332 -373 0
-332 -374 0
-332 -375 0
-332 -376 0
-332 -377 0
-332 -378 0
-332 -379 0
-332 -380 0
-332 -381 0
-332 -382 0
-332 -383 0
-332 -384 0
-333 -334 0
-333 -335 0
-333 -336 0
-333 -337 0
-333 -338 0
-333 -339 0
-333 -340 0
-333 -341 0
-333 -342 0
-333 -343 0
-333 -344 0
-333 -345 0
-333 -346 0
-333 -347 0
-333 -348 0
-333 -349 0
-333 -350 0
-333 -351 0
-333 -352 0
-333 -353 0
-333 -354 0
-333 -355 0
-333 -356 0
-333 -357 0
-333 -358 0
-333 -359 0
-333 -360 0
-333 -361 0
-333 -362 0
-333 -363 0
-333 -364 0
-333 -365 0
-333 -366 0
-333 -367 0
-333 -368 0
-333 -369 0
-333 -370 0
-333 -371 0
-333 -372 0
-333 -373 0
-333 -374 0
-333 -375 0
-333 -376 0
-333 -377 0
-333 -378 0
-333 -379 0
-333 -380 0
-333 -381 0
-333 -382 0
-333 -383 0
-333 -384 0
-334 -335 0
-334 -336 0
-334 -337 0
-334 -338 0
-334 -339 0
-334 -340 0
-334 -341 0
-334 -342 0
-334 -343 0
-334 -344 0
-334 -345 0
-334 -346 0
-334 -347 0
-334 -348 0
-334 -349 0
-334 -350 0
-334 -351 0
-334 -352 0
-334 -353 0
-334 -354 0
-334 -355 0
-334 -356 0
-334 -357 0
-334 -358 0
-334 -359 0
-334 -360 0
-334 -361 0
-334 -362 0
-334 -363 0
-334 -364 0
-334 -365 0
-334 -366 0
-334 -367 0
-334 -368 0
-334 -369 0
-334 -370 0
-334 -371 0
-334 -372 0
-334 -373 0
-334 -374 0
-334 -375 0
-334 -376 0
-334 -377 0
-334 -378 0
-334 -379 0
-334 -380 0
-334 -381 0
-334 -382 0
-334 -383 0
-334 -384 0
-335 -336 0
-335 -337 0
-335 -338 0
-335 -339 0
-335 -340 0
-335 -341 0
-335 -342 0
-335 -343 0
-335 -344 0
-335 -345 0
-335 -346 0
-335 -347 0
-335 -348 0
-335 -349 0
-335 -350 0
-335 -351 0
-335 -352 0
-335 -353 0
-335 -354 0
-335 -355 0
-335 -356 0
-335 -357 0
-335 -358 0
-335 -359 0
-335 -360 0
-335 -361 0
-335 -362 0
-335 -363 0
-335 -364 0
-335 -365 0
-335 -366 0
-335 -367 0
-335 -368 0
-335 -369 0
-335 -370 0
-335 -371 0
-335 -372 0
-335 -373 0
-335 -374 0
-335 -375 0
-335 -376 0
-335 -377 0
-335 -378 0
-335 -379 0
-335 -380 0
-335 -381 0
-335 -382 0
-335 -383 0
-335 -384 0
-336 -337 0
-336 -338 0
-336 -339 0
-336 -340 0
-336 -341 0
-336 -342 0
-336 -343 0
-336 -344 0
-336 -345 0
-336 -346 0
-336 -347 0
-336 -348 0
-336 -349 0
-336 -350 0
-336 -351 0
-336 -352 0
-336 -353 0
-336 -354 0
-336 -355 0
-336 -356 0
-336 -357 0
-336 -358 0
-336 -359 0
-336 -360 0
-336 -361 0
-336 -362 0
-336 -363 0
-336 -364 0
-336 -365 0
-336 -366 0
-336 -367 0
-336 -368 0
-336 -369 0
-336 -370 0
-336 -371 0
-336 -372 0
-336 -373 0
-336 -374 0
-336 -375 0
-336 -376 0
-336 -377 0
-336 -378 0
-336 -379 0
-336 -380 0
-336 -381 0
-336 -382 0
-336 -383 0
-336 -384 0
-337 -338 0
-337 -339 0
-337 -340 0
-337 -341 0
-337 -342 0
-337 -343 0
-337 -344 0
-337 -345 0
-337 -346 0
-337 -347 0
-337 -348 0
-337 -349 0
-337 -350 0
-337 -351 0
-337 -352 0
-337 -353 0
-337 -354 0
-337 -355 0
-337 -356 0
-337 -357 0
-337 -358 0
-337 -359 0
-337 -360 0
-337 -361 0
-337 -362 0
-337 -363 0
-337 -364 0
-337 -365 0
-337 -366 0
-337 -367 0
-337 -368 0
-337 -369 0
-337 -370 0
-337 -371 0
-337 -372 0
-337 -373 0
-337 -374 0
-337 -375 0
-337 -376 0
-337 -377 0
-337 -378 0
-337 -379 0
-337 -380 0
-337 -381 0
-337 -382 0
-337 -383 0
-337 -384 0
-338 -339 0
-338 -340 0
-338 -341 0
-338 -342 0
-338 -343 0
-338 -344 0
-338 -345 0
-338 -346 0
-338 -347 0
-338 -348 0
-338 -349 0
-338 -350 0
-338 -351 0
-338 -352 0
-338 -353 0
-338 -354 0
-338 -355 0
-338 -356 0
-338 -357 0
-338 -358 0
-338 -359 0
-338 -360 0
-338 -361 0
-338 -362 0
-338 -363 0
-338 -364 0
-338 -365 0
-338 -366 0
-338 -367 0
-338 -368 0
-338 -369 0
-338 -370 0
-338 -371 0
-338 -372 0
-338 -373 0
-338 -374 0
-338 -375 0
-338 -376 0
-338 -377 0
-338 -378 0
-338 -379 0
-338 -380 0
-338 -381 0
-338 -382 0
-338 -383 0
-338 -384 0
-339 -340 0
-339 -341 0
-339 -342 0
-339 -343 0
-339 -344 0
-339 -345 0
-339 -346 0
-339 -347 0
-339 -348 0
-339 -349 0
-339 -350 0
-339 -351 0
-339 -352 0
-339 -353 0
-339 -354 0
-339 -355 0
-339 -356 0
-339 -357 0
-339 -358 0
-339 -359 0
-339 -360 0
-339 -361 0
-339 -362 0
-339 -363 0
-339 -364 0
-339 -365 0
-339 -366 0
-339 -367 0
-339 -368 0
-339 -369 0
-339 -370 0
-339 -371 0
-339 -372 0
-339 -373 0
-339 -374 0
-339 -375 0
-339 -376 0
-339 -377 0
-339 -378 0
-339 -379 0
-339 -380 0
-339 -381 0
-339 -382 0
-339 -383 0
-339 -384 0
-340 -341 0
-340 -342 0
-340 -343 0
-340 -344 0
-340 -345 0
-340 -346 0
-340 -347 0
-340 -348 0
-340 -349 0
-340 -350 0
-340 -351 0
-340 -352 0
-340 -353 0
-340 -354 0
-340 -355 0
-340 -356 0
-340 -357 0
-340 -358 0
-340 -359 0
-340 -360 0
-340 -361 0
-340 -362 0
-340 -363 0
-340 -364 0
-340 -365 0
-340 -366 0
-340 -367 0
-340 -368 0
-340 -369 0
-340 -370 0
-340 -371 0
-340 -372 0
-340 -373 0
-340 -374 0
-340 -375 0
-340 -376 0
-340 -377 0
-340 -378 0
-340 -379 0
-340 -380 0
-340 -381 0
-340 -382 0
-340 -383 0
-340 -384 0
-341 -342 0
-341 -343 0
-341 -344 0
-341 -345 0
-341 -346 0
-341 -347 0
-341 -348 0
-341 -349 0
-341 -350 0
-341 -351 0
-341 -352 0
-341 -353 0
-341 -354 0
-341 -355 0
-341 -356 0
-341 -357 0
-341 -358 0
-341 -359 0
-341 -360 0
-341 -361 0
-341 -362 0
-341 -363 0
-341 -364 0
-341 -365 0
-341 -366 0
-341 -367 0
-341 -368 0
-341 -369 0
-341 -370 0
-341 -371 0
-341 -372 0
-341 -373 0
-341 -374 0
-341 -375 0
-341 -376 0
-341 -377 0
-341 -378 0
-341 -379 0
-341 -380 0
-341 -381 0
-341 -382 0
-341 -383 0
-341 -384 0
-342 -343 0
-342 -344 0
-342 -345 0
-342 -346 0
-342 -347 0
-342 -348 0
-342 -349 0
-342 -350 0
-342 -351 0
-342 -352 0
-342 -353 0
-342 -354 0
-342 -355 0
-342 -356 0
-342 -357 0
-342 -358 0
-342 -359 0
-342 -360 0
-342 -361 0
-342 -362 0
-342 -363 0
-342 -364 0
-342 -365 0
-342 -366 0
-342 -367 0
-342 -368 0
-342 -369 0
-342 -370 0
-342 -371 0
-342 -372 0
-342 -373 0
-342 -374 0
-342 -375 0
-342 -376 0
-342 -377 0
-342 -378 0
-342 -379 0
-342 -380 0
-342 -381 0
-342 -382 0
-342 -383 0
-342 -384 0
-343 -344 0
-343 -345 0
-343 -346 0
-343 -347 0
-343 -348 0
-343 -349 0
-343 -350 0
-343 -351 0
-343 -352 0
-343 -353 0
-343 -354 0
-343 -355 0
-343 -356 0
-343 -357 0
-343 -358 0
-343 -359 0
-343 -360 0
-343 -361 0
-343 -362 0
-343 -363 0
-343 -364 0
-343 -365 0
-343 -366 0
-343 -367 0
-343 -368 0
-343 -369 0
-343 -370 0
-343 -371 0
-343 -372 0
-343 -373 0
-343 -374 0
-343 -375 0
-343 -376 0
-343 -377 0
-343 -378 0
-343 -379 0
-343 -380 0
-343 -381 0
-343 -382 0
-343 -383 0
-343 -384 0
-344 -345 0
-344 -346 0
-344 -347 0
-344 -348 0
-344 -349 0
-344 -350 0
-344 -351 0
-344 -352 0
-344 -353 0
-344 -354 0
-344 -355 0
-344 -356 0
-344 -357 0
-344 -358 0
-344 -359 0
-344 -360 0
-344 -361 0
-344 -362 0
-344 -363 0
-344 -364 0
-344 -365 0
-344 -366 0
-344 -367 0
-344 -368 0
-344 -369 0
-344 -370 0
-344 -371 0
-344 -372 0
-344 -373 0
-344 -374 0
-344 -375 0
-344 -376 0
-344 -377 0
-344 -378 0
-344 -379 0
-344 -380 0
-344 -381 0
-344 -382 0
-344 -383 0
-344 -384 0
-345 -346 0
-345 -347 0
-345 -348 0
-345 -349 0
-345 -350 0
-345 -351 0
-345 -352 0
-345 -353 0
-345 -354 0
-345 -355 0
-345 -356 0
-345 -357 0
-345 -358 0
-345 -359 0
-345 -360 0
-345 -361 0
-345 -362 0
-345 -363 0
-345 -364 0
-345 -365 0
-345 -366 0
-345 -367 0
-345 -368 0
-345 -369 0
-345 -370 0
-345 -371 0
-345 -372 0
-345 -373 0
-345 -374 0
-345 -375 0
-345 -376 0
-345 -377 0
-345 -378 0
-345 -379 0
-345 -380 0
-345 -381 0
-345 -382 0
-345 -383 0
-345 -384 0
-346 -347 0
-346 -348 0
-346 -349 0
-346 -350 0
-346 -351 0
-346 -352 0
-346 -353 0
-346 -354 0
-346 -355 0
-346 -356 0
-346 -357 0
-346 -358 0
-346 -359 0
-346 -360 0
-346 -361 0
-346 -362 0
-346 -363 0
-346 -364 0
-346 -365 0
-346 -366 0
-346 -367 0
-346 -368 0
-346 -369 0
-346 -370 0
-346 -371 0
-346 -372 0
-346 -373 0
-346 -374 0
-346 -375 0
-346 -376 0
-346 -377 0
-346 -378 0
-346 -379 0
-346 -380 0
-346 -381 0
-346 -382 0
-346 -383 0
-346 -384 0
-347 -348 0
-347 -349 0
-347 -350 0
-347 -351 0
-347 -352 0
-347 -353 0
-347 -354 0
-347 -355 0
-347 -356 0
-347 -357 0
-347 -358 0
-347 -359 0
-347 -360 0
-347 -361 0
-347 -362 0
-347 -363 0
-347 -364 0
-347 -365 0
-347 -366 0
-347 -367 0
-347 -368 0
-347 -369 0
-347 -370 0
-347 -371 0
-347 -372 0
-347 -373 0
-347 -374 0
-347 -375 0
-347 -376 0
-347 -377 0
-347 -378 0
-347 -379 0
-347 -380 0
-347 -381 0
-347 -382 0
-347 -383 0
-347 -384 0
-348 -349 0
-348 -350 0
-348 -351 0
-348 -352 0
-348 -353 0
-348 -354 0
-348 -355 0
-348 -356 0
-348 -357 0
-348 -358 0
-348 -359 0
-348 -360 0
-348 -361 0
-348 -362 0
-348 -363 0
-348 -364 0
-348 -365 0
-348 -366 0
-348 -367 0
-348 -368 0
-348 -369 0
-348 -370 0
-348 -371 0
-348 -372 0
-348 -373 0
-348 -374 0
-348 -375 0
-348 -376 0
-348 -377 0
-348 -378 0
-348 -379 0
-348 -380 0
-348 -381 0
-348 -382 0
-348 -383 0
-348 -384 0
-349 -350 0
-349 -351 0
-349 -352 0
-349 -353 0
-349 -354 0
-349 -355 0
-349 -356 0
-349 -357 0
-349 -358 0
-349 -359 0
-349 -360 0
-349 -361 0
-349 -362 0
-349 -363 0
-349 -364 0
-349 -365 0
-349 -366 0
-349 -367 0
-349 -368 0
-349 -369 0
-349 -370 0
-349 -371 0
-349 -372 0
-349 -373 0
-349 -374 0
-349 -375 0
-349 -376 0
-349 -377 0
-349 -378 0
-349 -379 0
-349 -380 0
-349 -381 0
-349 -382 0
-349 -383 0
-349 -384 0
-350 -351 0
-350 -352 0
-350 -353 0
-350 -354 0
-350 -355 0
-350 -356 0
-350 -357 0
-350 -358 0
-350 -359 0
-350 -360 0
-350 -361 0
-350 -362 0
-350 -363 0
-350 -364 0
-350 -365 0
-350 -366 0
-350 -367 0
-350 -368 0
-350 -369 0
-350 -370 0
-350 -371 0
-350 -372 0
-350 -373 0
-350 -374 0
-350 -375 0
-350 -376 0
-350 -377 0
-350 -378 0
-350 -379 0
-350 -380 0
-350 -381 0
-350 -382 0
-350 -383 0
-350 -384 0
-351 -352 0
-351 -353 0
-351 -354 0
-351 -355 0
-351 -356 0
-351 -357 0
-351 -358 0
-351 -359 0
-351 -360 0
-351 -361 0
-351 -362 0
-351 -363 0
-351 -364 0
-351 -365 0
-351 -366 0
-351 -367 0
-351 -368 0
-351 -369 0
-351 -370 0
-351 -371 0
-351 -372 0
-351 -373 0
-351 -374 0
-351 -375 0
-351 -376 0
-351 -377 0
-351 -378 0
-351 -379 0
-351 -380 0
-351 -381 0
-351 -382 0
-351 -383 0
-351 -384 0
-352 -353 0
-352 -354 0
-352 -355 0
-352 -356 0
-352 -357 0
-352 -358 0
-352 -359 0
-352 -360 0
-352 -361 0
-352 -362 0
-352 -363 0
-352 -364 0
-352 -365 0
-352 -366 0
-352 -367 0
-352 -368 0
-352 -369 0
-352 -370 0
-352 -371 0
-352 -372 0
-352 -373 0
-352 -374 0
-352 -375 0
-352 -376 0
-352 -377 0
-352 -378 0
-352 -379 0
-352 -380 0
-352 -381 0
-352 -382 0
-352 -383 0
-352 -384 0
-353 -354 0
-353 -355 0
-353 -356 0
-353 -357 0
-353 -358 0
-353 -359 0
-353 -360 0
-353 -361 0
-353 -362 0
-353 -363 0
-353 -364 0
-353 -365 0
-353 -366 0
-353 -367 0
-353 -368 0
-353 -369 0
-353 -370 0
-353 -371 0
-353 -372 0
-353 -373 0
-353 -374 0
-353 -375 0
-353 -376 0
-353 -377 0
-353 -378 0
-353 -379 0
-353 -380 0
-353 -381 0
-353 -382 0
-353 -383 0
-353 -384 0
-354 -355 0
-354 -356 0
-354 -357 0
-354 -358 0
-354 -359 0
-354 -360 0
-354 -361 0
-354 -362 0
-354 -363 0
-354 -364 0
-354 -365 0
-354 -366 0
-354 -367 0
-354 -368 0
-354 -369 0
-354 -370 0
-354 -371 0
-354 -372 0
-354 -373 0
-354 -374 0
-354 -375 0
-354 -376 0
-354 -377 0
-354 -378 0
-354 -379 0
-354 -380 0
-354 -381 0
-354 -382 0
-354 -383 0
-354 -384 0
-355 -356 0
-355 -357 0
-355 -358 0
-355 -359 0
-355 -360 0
-355 -361 0
-355 -362 0
-355 -363 0
-355 -364 0
-355 -365 0
-355 -366 0
-355 -367 0
-355 -368 0
-355 -369 0
-355 -370 0
-355 -371 0
-355 -372 0
-355 -373 0
-355 -374 0
-355 -375 0
-355 -376 0
-355 -377 0
-355 -378 0
-355 -379 0
-355 -380 0
-355 -381 0
-355 -382 0
-355 -383 0
-355 -384 0
-356 -357 0
-356 -358 0
-356 -359 0
-356 -360 0
-356 -361 0
-356 -362 0
-356 -363 0
-356 -364 0
-356 -365 0
-356 -366 0
-356 -367 0
-356 -368 0
-356 -369 0
-356 -370 0
-356 -371 0
-356 -372 0
-356 -373 0
-356 -374 0
-356 -375 0
-356 -376 0
-356 -377 0
-356 -378 0
-356 -379 0
-356 -380 0
-356 -381 0
-356 -382 0
-356 -383 0
-356 -384 0
-357 -358 0
-357 -359 0
-357 -360 0
-357 -361 0
-357 -362 0
-357 -363 0
-357 -364 0
-357 -365 0
-357 -366 0
-357 -367 0
-357 -368 0
-357 -369 0
-357 -370 0
-357 -371 0
-357 -372 0
-357 -373 0
-357 -374 0
-357 -375 0
-357 -376 0
-357 -377 0
-357 -378 0
-357 -379 0
-357 -380 0
-357 -381 0
-357 -382 0
-357 -383 0
-357 -384 0
-358 -359 0
-358 -360 0
-358 -361 0
-358 -362 0
-358 -363 0
-358 -364 0
-358 -365 0
-358 -366 0
-358 -367 0
-358 -368 0
-358 -369 0
-358 -370 0
-358 -371 0
-358 -372 0
-358 -373 0
-358 -374 0
-358 -375 0
-358 -376 0
-358 -377 0
-358 -378 0
-358 -379 0
-358 -380 0
-358 -381 0
-358 -382 0
-358 -383 0
-358 -384 0
-359 -360 0
-359 -361 0
-359 -362 0
-359 -363 0
-359 -364 0
-359 -365 0
-359 -366 0
-359 -367 0
-359 -368 0
-359 -369 0
-359 -370 0
-359 -371 0
-359 -372 0
-359 -373 0
-359 -374 0
-359 -375 0
-359 -376 0
-359 -377 0
-359 -378 0
-359 -379 0
-359 -380 0
-359 -381 0
-359 -382 0
-359 -383 0
-359 -384 0
-360 -361 0
-360 -362 0
-360 -363 0
-360 -364 0
-360 -365 0
-360 -366 0
-360 -367 0
-360 -368 0
-360 -369 0
-360 -370 0
-360 -371 0
-360 -372 0
-360 -373 0
-360 -374 0
-360 -375 0
-360 -376 0
-360 -377 0
-360 -378 0
-360 -379 0
-360 -380 0
-360 -381 0
-360 -382 0
-360 -383 0
-360 -384 0
-361 -362 0
-361 -363 0
-361 -364 0
-361 -365 0
-361 -366 0
-361 -367 0
-361 -368 0
-361 -369 0
-361 -370 0
-361 -371 0
-361 -372 0
-361 -373 0
-361 -374 0
-361 -375 0
-361 -376 0
-361 -377 0
-361 -378 0
-361 -379 0
-361 -380 0
-361 -381 0
-361 -382 0
-361 -383 0
-361 -384 0
-362 -363 0
-362 -364 0
-362 -365 0
-362 -366 0
-362 -367 0
-362 -368 0
-362 -369 0
-362 -370 0
-362 -371 0
-362 -372 0
-362 -373 0
-362 -374 0
-362 -375 0
-362 -376 0
-362 -377 0
-362 -378 0
-362 -379 0
-362 -380 0
-362 -381 0
-362 -382 0
-362 -383 0
-362 -384 0
-363 -364 0
-363 -365 0
-363 -366 0
-363 -367 0
-363 -368 0
-363 -369 0
-363 -370 0
-363 -371 0
-363 -372 0
-363 -373 0
-363 -374 0
-363 -375 0
-363 -376 0
-363 -377 0
-363 -378 0
-363 -379 0
-363 -380 0
-363 -381 0
-363 -382 0
-363 -383 0
-363 -384 0
-364 -365 0
-364 -366 0
-364 -367 0
-364 -368 0
-364 -369 0
-364 -370 0
-364 -371 0
-364 -372 0
-364 -373 0
-364 -374 0
-364 -375 0
-364 -376 0
-364 -377 0
-364 -378 0
-364 -379 0
-364 -380 0
-364 -381 0
-364 -382 0
-364 -383 0
-364 -384 0
-365 -366 0
-365 -367 0
-365 -368 0
-365 -369 0
-365 -370 0
-365 -371 0
-365 -372 0
-365 -373 0
-365 -374 0
-365 -375 0
-365 -376 0
-365 -377 0
-365 -378 0
-365 -379 0
-365 -380 0
-365 -381 0
-365 -382 0
-365 -383 0
-365 -384 0
-366 -367 0
-366 -368 0
-366 -369 0
-366 -370 0
-366 -371 0
-366 -372 0
-366 -373 0
-366 -374 0
-366 -375 0
-366 -376 0
-366 -377 0
-366 -378 0
-366 -379 0
-366 -380 0
-366 -381 0
-366 -382 0
-366 -383 0
-366 -384 0
-367 -368 0
-367 -369 0
-367 -370 0
-367 -371 0
-367 -372 0
-367 -373 0
-367 -374 0
-367 -375 0
-367 -376 0
-367 -377 0
-367 -378 0
-367 -379 0
-367 -380 0
-367 -381 0
-367 -382 0
-367 -383 0
-367 -384 0
-368 -369 0
-368 -370 0
-368 -371 0
-368 -372 0
-368 -373 0
-368 -374 0
-368 -375 0
-368 -376 0
-368 -377 0
-368 -378 0
-368 -379 0
-368 -380 0
-368 -381 0
-368 -382 0
-368 -383 0
-368 -384 0
-369 -370 0
-369 -371 0
-369 -372 0
-369 -373 0
-369 -374 0
-369 -375 0
-369 -376 0
-369 -377 0
-369 -378 0
-369 -379 0
-369 -380 0
-369 -381 0
-369 -382 0
-369 -383 0
-369 -384 0
-370 -371 0
-370 -372 0
-370 -373 0
-370 -374 0
-370 -375 0
-370 -376 0
-370 -377 0
-370 -378 0
-370 -379 0
-370 -380 0
-370 -381 0
-370 -382 0
-370 -383 0
-370 -384 0
-371 -372 0
-371 -373 0
-371 -374 0
-371 -375 0
-371 -376 0
-371 -377 0
-371 -378 0
-371 -379 0
-371 -380 0
-371 -381 0
-371 -382 0
-371 -383 0
-371 -384 0
-372 -373 0
-372 -374 0
-372 -375 0
-372 -376 0
-372 -377 0
-372 -378 0
-372 -379 0
-372 -380 0
-372 -381 0
-372 -382 0
-372 -383 0
-372 -384 0
-373 -374 0
-373 -375 0
-373 -376 0
-373 -377 0
-373 -378 0
-373 -379 0
-373 -380 0
-373 -381 0
-373 -382 0
-373 -383 0
-373 -384 0
-374 -375 0
-374 -376 0
-374 -377 0
-374 -378 0
-374 -379 0
-374 -380 0
-374 -381 0
-374 -382 0
-374 -383 0
-374 -384 0
-375 -376 0
-375 -377 0
-375 -378 0
-375 -379 0
-375 -380 0
-375 -381 0
-375 -382 0
-375 -383 0
-375 -384 0
-376 -377 0
-376 -378 0
-376 -379 0
-376 -380 0
-376 -381 0
-376 -382 0
-376 -383 0
-376 -384 0
-377 -378 0
-377 -379 0
-377 -380 0
-377 -381 0
-377 -382 0
-377 -383 0
-377 -384 0
-378 -379 0
-378 -380 0
-378 -381 0
-378 -382 0
-378 -383 0
-378 -384 0
-379 -380 0
-379 -381 0
-379 -382 0
-379 -383 0
-379 -384 0
-380 -381 0
-380 -382 0
-380 -383 0
-380 -384 0
-381 -382 0
-381 -383 0
-381 -384 0
-382 -383 0
-382 -384 0
-383 -384 0
385 386 387 388 389 390 391 392 393 394 395 396 397 398 399 400 401 402 403 404 405 406 407 408 409 410 411 412 413 414 415 416 417 418 419 420 421 422 423 424 425 426 427 428 429 430 431 432 433 434 435 436 437 438 439 440 441 442 443 444 445 446 447 448 449 450 451 452 453 454 455 456 457 458 459 460 461 462 463 464 465 466 467 468 469 470 471 472 473 474 475 476 477 478 479 480 481 482 483 484 485 486 487 488 489 490 491 492 493 494 495 496 497 498 499 500 501 502 503 504 505 506 507 508 509 510 511 512 0
-385 -386 0
-385 -387 0
-385 -388 0
-385 -389 0
-385 -390 0
-385 -391 0
-385 -392 0
-385 -393 0
-385 -394 0
-385 -395 0
-385 -396 0
-385 -397 0
-385 -398 0
-385 -399 0
-385 -400 0
-385 -401 0
-385 -402 0
-385 -403 0
-385 -404 0
-385 -405 0
-385 -406 0
-385 -407 0
-385 -408 0
-385 -409 0
-385 -410 0
-385 -411 0
-385 -412 0
-385 -413 0
-385 -414 0
-385 -415 0
-385 -416 0
-385 -417 0
-385 -418 0
-385 -419 0
-385 -420 0
-385 -421 0
-385 -422 0
-385 -423 0
-385 -424 0
-385 -425 0
-385 -426 0
-385 -427 0
-385 -428 0
-385 -429 0
-385 -430 0
-385 -431 0
-385 -432 0
-385 -433 0
-385 -434 0
-385 -435 0
-385 -436 0
-385 -437 0
-385 -438 0
-385 -439 0
-385 -440 0
-385 -441 0
-385 -442 0
-385 -443 0
-385 -444 0
-385 -445 0
-385 -446 0
-385 -447 0
-385 -448 0
-385 -449 0
-385 -450 0
-385 -451 0
-385 -452 0
-385 -453 0
-385 -454 0
-385 -455 0
-385 -456 0
-385 -457 0
-385 -458 0
-385 -459 0
-385 -460 0
-385 -461 0
-385 -462 0
-385 -463 0
-385 -464 0
-385 -465 0
-385 -466 0
-385 -467 0
-385 -468 0
-385 -469 0
-385 -470 0
-385 -471 0
-385 -472 0
-385 -473 0
-385 -474 0
-385 -475 0
-385 -476 0
-385 -477 0
-385 -478 0
-385 -479 0
-385 -480 0
-385 -481 0
-385 -482 0
-385 -483 0
-385 -484 0
-385 -485 0
-385 -486 0
-385 -487 0
-385 -488 0
-385 -489 0
-385 -490 0
-385 -491 0
-385 -492 0
-385 -493 0
-385 -494 0
-385 -495 0
-385 -496 0
-385 -497 0
-385 -498 0
-385 -499 0
-385 -500 0
-385 -501 0
-385 -502 0
-385 -503 0
-385 -504 0
-385 -505 0
-385 -506 0
-385 -507 0
-385 -508 0
-385 -509 0
-385 -510 0
-385 -511 0
-385 -512 0
-386 -387 0
-386 -388 0
-386 -389 0
-386 -390 0
-386 -391 0
-386 -392 0
-386 -393 0
-386 -394 0
-386 -395 0
-386 -396 0
-386 -397 0
-386 -398 0
-386 -399 0
-386 -400 0
-386 -401 0
-386 -402 0
-386 -403 0
-386 -404 0
-386 -405 0
-386 -406 0
-386 -407 0
-386 -408 0
-386 -409 0
-386 -410 0
-386 -411 0
-386 -412 0
-386 -413 0
-386 -414 0
-386 -415 0
-386 -416 0
-386 -417 0
-386 -418 0
-386 -419 0
-386 -420 0
-386 -421 0
-386 -422 0
-386 -423 0
-386 -424 0
-386 -425 0
-386 -426 0
-386 -427 0
-386 -428 0
-386 -429 0
-386 -430 0
-386 -431 0
-386 -432 0
-386 -433 0
-386 -434 0
-386 -435 0
-386 -436 0
-386 -437 0
-386 -438 0
-386 -439 0
-386 -440 0
-386 -441 0
-386 -442 0
-386 -443 0
-386 -444 0
-386 -445 0
-386 -446 0
-386 -447 0
-386 -448 0
-386 -449 0
-386 -450 0
-386 -451 0
-386 -452 0
-386 -453 0
-386 -454 0
-386 -455 0
-386 -456 0
-386 -457 0
-386 -458 0
-386 -459 0
-386 -460 0
-386 -461 0
-386 -462 0
-386 -463 0
-386 -464 0
-386 -465 0
-386 -466 0
-386 -467 0
-386 -468 0
-386 -469 0
-386 -470 0
-386 -471 0
-386 -472 0
-386 -473 0
-386 -474 0
-386 -475 0
-386 -476 0
-386 -477 0
-386 -478 0
-386 -479 0
-386 -480 0
-386 -481 0
-386 -482 0
-386 -483 0
-386 -484 0
-386 -485 0
-386 -486 0
-386 -487 0
-386 -488 0
-386 -489 0
-386 -490 0
-386 -491 0
-386 -492 0
-386 -493 0
-386 -494 0
-386 -495 0
-386 -496 0
-386 -497 0
-386 -498 0
-386 -499 0
-386 -500 0
-386 -501 0
-386 -502 0
-386 -503 0
-386 -504 0
-386 -505 0
-386 -506 0
-386 -507 0
-386 -508 0
-386 -509 0
-386 -510 0
-386 -511 0
-386 -512 0
-387 -388 0
-387 -389 0
-387 -390 0
-387 -391 0
-387 -392 0
-387 -393 0
-387 -394 0
-387 -395 0
-387 -396 0
-387 -397 0
-387 -398 0
-387 -399 0
-387 -400 0
-387 -401 0
-387 -402 0
-387 -403 0
-387 -404 0
-387 -405 0
-387 -406 0
-387 -407 0
-387 -408 0
-387 -409 0
-387 -410 0
-387 -411 0
-387 -412 0
-387 -413 0
-387 -414 0
-387 -415 0
-387 -416 0
-387 -417 0
-387 -418 0
-387 -419 0
-387 -420 0
-387 -421 0
-387 -422 0
-387 -423 0
-387 -424 0
-387 -425 0
-387 -426 0
-387 -427 0
-387 -428 0
-387 -429 0
-387 -430 0
-387 -431 0
-387 -432 0
-387 -433 0
-387 -434 0
-387 -435 0
-387 -436 0
-387 -437 0
-387 -438 0
-387 -439 0
-387 -440 0
-387 -441 0
-387 -442 0
-387 -443 0
-387 -444 0
-387 -445 0
-387 -446 0
-387 -447 0
-387 -448 0
-387 -449 0
-387 -450 0
-387 -451 0
-387 -452 0
-387 -453 0
-387 -454 0
-387 -455 0
-387 -456 0
-387 -457 0
-387 -458 0
-387 -459 0
-387 -460 0
-387 -461 0
-387 -462 0
-387 -463 0
-387 -464 0
-387 -465 0
-387 -466 0
-387 -467 0
-387 -468 0
-387 -469 0
-387 -470 0
-387 -471 0
-387 -472 0
-387 -473 0
-387 -474 0
-387 -475 0
-387 -476 0
-387 -477 0
-387 -478 0
-387 -479 0
-387 -480 0
-387 -481 0
-387 -482 0
-387 -483 0
-387 -484 0
-387 -485 0
-387 -486 0
-387 -487 0
-387 -488 0
-387 -489 0
-387 -490 0
-387 -491 0
-387 -492 0
-387 -493 0
-387 -494 0
-387 -495 0
-387 -496 0
-387 -497 0
-387 -498 0
-387 -499 0
-387 -500 0
-387 -501 0
-387 -502 0
-387 -503 0
-387 -504 0
-387 -505 0
-387 -506 0
-387 -507 0
-387 -508 0
-387 -509 0
-387 -510 0
-387 -511 0
-387 -512 0
-388 -389 0
-388 -390 0
-388 -391 0
-388 -392 0
-388 -393 0
-388 -394 0
-388 -395 0
-388 -396 0
-388 -397 0
-388 -398 0
-388 -399 0
-388 -400 0
-388 -401 0
-388 -402 0
-388 -403 0
-388 -404 0
-388 -405 0
-388 -406 0
-388 -407 0
-388 -408 0
-388 -409 0
-388 -410 0
-388 -411 0
-388 -412 0
-388 -413 0
-388 -414 0
-388 -415 0
-388 -416 0
-388 -417 0
-388 -418 0
-388 -419 0
-388 -420 0
-388 -421 0
-388 -422 0
-388 -423 0
-388 -424 0
-388 -425 0
-388 -426 0
-388 -427 0
-388 -428 0
-388 -429 0
-388 -430 0
-388 -431 0
-388 -432 0
-388 -433 0
-388 -434 0
-388 -435 0
-388 -436 0
-388 -437 0
-388 -438 0
-388 -439 0
-388 -440 0
-388 -441 0
-388 -442 0
-388 -443 0
-388 -444 0
-388 -445 0
-388 -446 0
-388 -447 0
-388 -448 0
-388 -449 0
-388 -450 0
-388 -451 0
-388 -452 0
-388 -453 0
-388 -454 0
-388 -455 0
-388 -456 0
-388 -457 0
-388 -458 0
-388 -459 0
-388 -460 0
-388 -461 0
-388 -462 0
-388 -463 0
-388 -464 0
-388 -465 0
-388 -466 0
-388 -467 0
-388 -468 0
-388 -469 0
-388 -470 0
-388 -471 0
-388 -472 0
-388 -473 0
-388 -474 0
-388 -475 0
-388 -476 0
-388 -477 0
-388 -478 0
-388 -479 0
-388 -480 0
-388 -481 0
-388 -482 0
-388 -483 0
-388 -484 0
-388 -485 0
-388 -486 0
-388 -487 0
-388 -488 0
-388 -489 0
-388 -490 0
-388 -491 0
-388 -492 0
-388 -493 0
-388 -494 0
-388 -495 0
-388 -496 0
-388 -497 0
-388 -498 0
-388 -499 0
-388 -500 0
-388 -501 0
-388 -502 0
-388 -503 0
-388 -504 0
-388 -505 0
-388 -506 0
-388 -507 0
-388 -508 0
-388 -509 0
-388 -510 0
-388 -511 0
-388 -512 0
-389 -390 0
-389 -391 0
-389 -392 0
-389 -393 0
-389 -394 0
-389 -395 0
-389 -396 0
-389 -397 0
-389 -398 0
-389 -399 0
-389 -400 0
-389 -401 0
-389 -402 0
-389 -403 0
-389 -404 0
-389 -405 0
-389 -406 0
-389 -407 0
-389 -408 0
-389 -409 0
-389 -410 0
-389 -411 0
-389 -412 0
-389 -413 0
-389 -414 0
-389 -415 0
-389 -416 0
-389 -417 0
-389 -418 0
-389 -419 0
-389 -420 0
-389 -421 0
-389 -422 0
-389 -423 0
-389 -424 0
-389 -425 0
-389 -426 0
-389 -427 0
-389 -428 0
-389 -429 0
-389 -430 0
-389 -431 0
-389 -432 0
-389 -433 0
-389 -434 0
-389 -435 0
-389 -436 0
-389 -437 0
-389 -438 0
-389 -439 0
-389 -440 0
-389 -441 0
-389 -442 0
-389 -443 0
-389 -444 0
-389 -445 0
-389 -446 0
-389 -447 0
-389 -448 0
-389 -449 0
-389 -450 0
-389 -451 0
-389 -452 0
-389 -453 0
-389 -454 0
-389 -455 0
-389 -456 0
-389 -457 0
-389 -458 0
-389 -459 0
-389 -460 0
-389 -461 0
-389 -462 0
-389 -463 0
-389 -464 0
-389 -465 0
-389 -466 0
-389 -467 0
-389 -468 0
-389 -469 0
-389 -470 0
-389 -471 0
-389 -472 0
-389 -473 0
-389 -474 0
-389 -475 0
-389 -476 0
-389 -477 0
-389 -478 0
-389 -479 0
-389 -480 0
-389 -481 0
-389 -482 0
-389 -483 0
-389 -484 0
-389 -485 0
-389 -486 0
-389 -487 0
-389 -488 0
-389 -489 0
-389 -490 0
-389 -491 0
-389 -492 0
-389 -493 0
-389 -494 0
-389 -495 0
-389 -496 0
-389 -497 0
-389 -498 0
-389 -499 0
-389 -500 0
-389 -501 0
-389 -502 0
-389 -503 0
-389 -504 0
-389 -505 0
-389 -506 0
-389 -507 0
-389 -508 0
-389 -509 0
-389 -510 0
-389 -511 0
-389 -512 0
-390 -391 0
-390 -392 0
-390 -393 0
-390 -394 0
-390 -395 0
-390 -396 0
-390 -397 0
-390 -398 0
-390 -399 0
-390 -400 0
-390 -401 0
-390 -402 0
-390 -403 0
-390 -404 0
-390 -405 0
-390 -406 0
-390 -407 0
-390 -408 0
-390 -409 0
-390 -410 0
-390 -411 0
-390 -412 0
-390 -413 0
-390 -414 0
-390 -415 0
-390 -416 0
-390 -417 0
-390 -418 0
-390 -419 0
-390 -420 0
-390 -421 0
-390 -422 0
-390 -423 0
-390 -424 0
-390 -425 0
-390 -426 0
-390 -427 0
-390 -428 0
-390 -429 0
-390 -430 0
-390 -431 0
-390 -432 0
-390 -433 0
-390 -434 0
-390 -435 0
-390 -436 0
-390 -437 0
-390 -438 0
-390 -439 0
-390 -440 0
-390 -441 0
-390 -442 0
-390 -443 0
-390 -444 0
-390 -445 0
-390 -446 0
-390 -447 0
-390 -448 0
-390 -449 0
-390 -450 0
-390 -451 0
-390 -452 0
-390 -453 0
-390 -454 0
-390 -455 0
-390 -456 0
-390 -457 0
-390 -458 0
-390 -459 0
-390 -460 0
-390 -461 0
-390 -462 0
-390 -463 0
-390 -464 0
-390 -465 0
-390 -466 0
-390 -467 0
-390 -468 0
-390 -469 0
-390 -470 0
-390 -471 0
-390 -472 0
-390 -473 0
-390 -474 0
-390 -475 0
-390 -476 0
-390 -477 0
-390 -478 0
-390 -479 0
-390 -480 0
-390 -481 0
-390 -482 0
-390 -483 0
-390 -484 0
-390 -485 0
-390 -486 0
-390 -487 0
-390 -488 0
-390 -489 0
-390 -490 0
-390 -491 0
-390 -492 0
-390 -493 0
-390 -494 0
-390 -495 0
-390 -496 0
-390 -497 0
-390 -498 0
-390 -499 0
-390 -500 0
-390 -501 0
-390 -502 0
-390 -503 0
-390 -504 0
-390 -505 0
-390 -506 0
-390 -507 0
-390 -508 0
-390 -509 0
-390 -510 0
-390 -511 0
-390 -512 0
-391 -392 0
-391 -393 0
-391 -394 0
-391 -395 0
-391 -396 0
-391 -397 0
-391 -398 0
-391 -399 0
-391 -400 0
-391 -401 0
-391 -402 0
-391 -403 0
-391 -404 0
-391 -405 0
-391 -406 0
-391 -407 0
-391 -408 0
-391 -409 0
-391 -410 0
-391 -411 0
-391 -412 0
-391 -413 0
-391 -414 0
-391 -415 0
-391 -416 0
-391 -417 0
-391 -418 0
-391 -419 0
-391 -420 0
-391 -421 0
-391 -422 0
-391 -423 0
-391 -424 0
-391 -425 0
-391 -426 0
-391 -427 0
-391 -428 0
-391 -429 0
-391 -430 0
-391 -431 0
-391 -432 0
-391 -433 0
-391 -434 0
-391 -435 0
-391 -436 0
-391 -437 0
-391 -438 0
-391 -439 0
-391 -440 0
-391 -441 0
-391 -442 0
-391 -443 0
-391 -444 0
-391 -445 0
-391 -446 0
-391 -447 0
-391 -448 0
-391 -449 0
-391 -450 0
-391 -451 0
-391 -452 0
-391 -453 0
-391 -454 0
-391 -455 0
-391 -456 0
-391 -457 0
-391 -458 0
-391 -459 0
-391 -460 0
-391 -461 0
-391 -462 0
-391 -463 0
-391 -464 0
-391 -465 0
-391 -466 0
-391 -467 0
-391 -468 0
-391 -469 0
-391 -470 0
-391 -471 0
-391 -472 0
-391 -473 0
-391 -474 0
-391 -475 0
-391 -476 0
-391 -477 0
-391 -478 0
-391 -479 0
-391 -480 0
-391 -481 0
-391 -482 0
-391 -483 0
-391 -484 0
-391 -485 0
-391 -486 0
-391 -487 0
-391 -488 0
-391 -489 0
-391 -490 0
-391 -491 0
-391 -492 0
-391 -493 0
-391 -494 0
-391 -495 0
-391 -496 0
-391 -497 0
-391 -498 0
-391 -499 0
-391 -500 0
-391 -501 0
-391 -502 0
-391 -503 0
-391 -504 0
-391 -505 0
-391 -506 0
-391 -507 0
-391 -508 0
-391 -509 0
-391 -510 0
-391 -511 0
-391 -512 0
-392 -393 0
-392 -394 0
-392 -395 0
-392 -396 0
-392 -397 0
-392 -398 0
-392 -399 0
-392 -400 0
-392 -401 0
-392 -402 0
-392 -403 0
-392 -404 0
-392 -405 0
-392 -406 0
-392 -407 0
-392 -408 0
-392 -409 0
-392 -410 0
-392 -411 0
-392 -412 0
-392 -413 0
-392 -414 0
-392 -415 0
-392 -416 0
-392 -417 0
-392 -418 0
-392 -419 0
-392 -420 0
-392 -421 0
-392 -422 0
-392 -423 0
-392 -424 0
-392 -425 0
-392 -426 0
-392 -427 0
-392 -428 0
-392 -429 0
-392 -430 0
-392 -431 0
-392 -432 0
-392 -433 0
-392 -434 0
-392 -435 0
-392 -436 0
-392 -437 0
-392 -438 0
-392 -439 0
-392 -440 0
-392 -441 0
-392 -442 0
-392 -443 0
-392 -444 0
-392 -445 0
-392 -446 0
-392 -447 0
-392 -448 0
-392 -449 0
-392 -450 0
-392 -451 0
-392 -452 0
-392 -453 0
-392 -454 0
-392 -455 0
-392 -456 0
-392 -457 0
-392 -458 0
-392 -459 0
-392 -460 0
-392 -461 0
-392 -462 0
-392 -463 0
-392 -464 0
-392 -465 0
-392 -466 0
-392 -467 0
-392 -468 0
-392 -469 0
-392 -470 0
-392 -471 0
-392 -472 0
-392 -473 0
-392 -474 0
-392 -475 0
-392 -476 0
-392 -477 0
-392 -478 0
-392 -479 0
-392 -480 0
-392 -481 0
-392 -482 0
-392 -483 0
-392 -484 0
-392 -485 0
-392 -486 0
-392 -487 0
-392 -488 0
-392 -489 0
-392 -490 0
-392 -491 0
-392 -492 0
-392 -493 0
-392 -494 0
-392 -495 0
-392 -496 0
-392 -497 0
-392 -498 0
-392 -499 0
-392 -500 0
-392 -501 0
-392 -502 0
-392 -503 0
-392 -504 0
-392 -505 0
-392 -506 0
-392 -507 0
-392 -508 0
-392 -509 0
-392 -510 0
-392 -511 0
-392 -512 0
-393 -394 0
-393 -395 0
-393 -396 0
-393 -397 0
-393 -398 0
-393 -399 0
-393 -400 0
-393 -401 0
-393 -402 0
-393 -403 0
-393 -404 0
-393 -405 0
-393 -406 0
-393 -407 0
-393 -408 0
-393 -409 0
-393 -410 0
-393 -411 0
-393 -412 0
-393 -413 0
-393 -414 0
-393 -415 0
-393 -416 0
-393 -417 0
-393 -418 0
-393 -419 0
-393 -420 0
-393 -421 0
-393 -422 0
-393 -423 0
-393 -424 0
-393 -425 0
-393 -426 0
-393 -427 0
-393 -428 0
-393 -429 0
-393 -430 0
-393 -431 0
-393 -432 0
-393 -433 0
-393 -434 0
-393 -435 0
-393 -436 0
-393 -437 0
-393 -438 0
-393 -439 0
-393 -440 0
-393 -441 0
-393 -442 0
-393 -443 0
-393 -444 0
-393 -445 0
-393 -446 0
-393 -447 0
-393 -448 0
-393 -449 0
-393 -450 0
-393 -451 0
-393 -452 0
-393 -453 0
-393 -454 0
-393 -455 0
-393 -456 0
-393 -457 0
-393 -458 0
-393 -459 0
-393 -460 0
-393 -461 0
-393 -462 0
-393 -463 0
-393 -464 0
-393 -465 0
-393 -466 0
-393 -467 0
-393 -468 0
-393 -469 0
-393 -470 0
-393 -471 0
-393 -472 0
-393 -473 0
-393 -474 0
-393 -475 0
-393 -476 0
-393 -477 0
-393 -478 0
-393 -479 0
-393 -480 0
-393 -481 0
-393 -482 0
-393 -483 0
-393 -484 0
-393 -485 0
-393 -486 0
-393 -487 0
-393 -488 0
-393 -489 0
-393 -490 0
-393 -491 0
-393 -492 0
-393 -493 0
-393 -494 0
-393 -495 0
-393 -496 0
-393 -497 0
-393 -498 0
-393 -499 0
-393 -500 0
-393 -501 0
-393 -502 0
-393 -503 0
-393 -504 0
-393 -505 0
-393 -506 0
-393 -507 0
-393 -508 0
-393 -509 0
-393 -510 0
-393 -511 0
-393 -512 0
-394 -395 0
-394 -396 0
-394 -397 0
-394 -398 0
-394 -399 0
-394 -400 0
-394 -401 0
-394 -402 0
-394 -403 0
-394 -404 0
-394 -405 0
-394 -406 0
-394 -407 0
-394 -408 0
-394 -409 0
-394 -410 0
-394 -411 0
-394 -412 0
-394 -413 0
-394 -414 0
-394 -415 0
-394 -416 0
-394 -417 0
-394 -418 0
-394 -419 0
-394 -420 0
-394 -421 0
-394 -422 0
-394 -423 0
-394 -424 0
-394 -425 0
-394 -426 0
-394 -427 0
-394 -428 0
-394 -429 0
-394 -430 0
-394 -431 0
-394 -432 0
-394 -433 0
-394 -434 0
-394 -435 0
-394 -436 0
-394 -437 0
-394 -438 0
-394 -439 0
-394 -440 0
-394 -441 0
-394 -442 0
-394 -443 0
-394 -444 0
-394 -445 0
-394 -446 0
-394 -447 0
-394 -448 0
-394 -449 0
-394 -450 0
-394 -451 0
-394 -452 0
-394 -453 0
-394 -454 0
-394 -455 0
-394 -456 0
-394 -457 0
-394 -458 0
-394 -459 0
-394 -460 0
-394 -461 0
-394 -462 0
-394 -463 0
-394 -464 0
-394 -465 0
-394 -466 0
-394 -467 0
-394 -468 0
-394 -469 0
-394 -470 0
-394 -471 0
-394 -472 0
-394 -473 0
-394 -474 0
-394 -475 0
-394 -476 0
-394 -477 0
-394 -478 0
-394 -479 0
-394 -480 0
-394 -481 0
-394 -482 0
-394 -483 0
-394 -484 0
-394 -485 0
-394 -486 0
-394 -487 0
-394 -488 0
-394 -489 0
-394 -490 0
-394 -491 0
-394 -492 0
-394 -493 0
-394 -494 0
-394 -495 0
-394 -496 0
-394 -497 0
-394 -498 0
-394 -499 0
-394 -500 0
-394 -501 0
-394 -502 0
-394 -503 0
-394 -504 0
-394 -505 0
-394 -506 0
-394 -507 0
-394 -508 0
-394 -509 0
-394 -510 0
-394 -511 0
-394 -512 0
-395 -396 0
-395 -397 0
-395 -398 0
-395 -399 0
-395 -400 0
-395 -401 0
-395 -402 0
-395 -403 0
-395 -404 0
-395 -405 0
-395 -406 0
-395 -407 0
-395 -408 0
-395 -409 0
-395 -410 0
-395 -411 0
-395 -412 0
-395 -413 0
-395 -414 0
-395 -415 0
-395 -416 0
-395 -417 0
-395 -418 0
-395 -419 0
-395 -420 0
-395 -421 0
-395 -422 0
-395 -423 0
-395 -424 0
-395 -425 0
-395 -426 0
-395 -427 0
-395 -428 0
-395 -429 0
-395 -430 0
-395 -431 0
-395 -432 0
-395 -433 0
-395 -434 0
-395 -435 0
-395 -436 0
-395 -437 0
-395 -438 0
-395 -439 0
-395 -440 0
-395 -441 0
-395 -442 0
-395 -443 0
-395 -444 0
-395 -445 0
-395 -446 0
-395 -447 0
-395 -448 0
-395 -449 0
-395 -450 0
-395 -451 0
-395 -452 0
-395 -453 0
-395 -454 0
-395 -455 0
-395 -456 0
-395 -457 0
-395 -458 0
-395 -459 0
-395 -460 0
-395 -461 0
-395 -462 0
-395 -463 0
-395 -464 0
-395 -465 0
-395 -466 0
-395 -467 0
-395 -468 0
-395 -469 0
-395 -470 0
-395 -471 0
-395 -472 0
-395 -473 0
-395 -474 0
-395 -475 0
-395 -476 0
-395 -477 0
-395 -478 0
-395 -479 0
-395 -480 0
-395 -481 0
-395 -482 0
-395 -483 0
-395 -484 0
-395 -485 0
-395 -486 0
-395 -487 0
-395 -488 0
-395 -489 0
-395 -490 0
-395 -491 0
-395 -492 0
-395 -493 0
-395 -494 0
-395 -495 0
-395 -496 0
-395 -497 0
-395 -498 0
-395 -499 0
-395 -500 0
-395 -501 0
-395 -502 0
-395 -503 0
-395 -504 0
-395 -505 0
-395 -506 0
-395 -507 0
-395 -508 0
-395 -509 0
-395 -510 0
-395 -511 0
-395 -512 0
-396 -397 0
-396 -398 0
-396 -399 0
-396 -400 0
-396 -401 0
-396 -402 0
-396 -403 0
-396 -404 0
-396 -405 0
-396 -406 0
-396 -407 0
-396 -408 0
-396 -409 0
-396 -410 0
-396 -411 0
-396 -412 0
-396 -413 0
-396 -414 0
-396 -415 0
-396 -416 0
-396 -417 0
-396 -418 0
-396 -419 0
-396 -420 0
-396 -421 0
-396 -422 0
-396 -423 0
-396 -424 0
-396 -425 0
-396 -426 0
-396 -427 0
-396 -428 0
-396 -429 0
-396 -430 0
-396 -431 0
-396 -432 0
-396 -433 0
-396 -434 0
-396 -435 0
-396 -436 0
-396 -437 0
-396 -438 0
-396 -439 0
-396 -440 0
-396 -441 0
-396 -442 0
-396 -443 0
-396 -444 0
-396 -445 0
-396 -446 0
-396 -447 0
-396 -448 0
-396 -449 0
-396 -450 0
-396 -451 0
-396 -452 0
-396 -453 0
-396 -454 0
-396 -455 0
-396 -456 0
-396 -457 0
-396 -458 0
-396 -459 0
-396 -460 0
-396 -461 0
-396 -462 0
-396 -463 0
-396 -464 0
-396 -465 0
-396 -466 0
-396 -467 0
-396 -468 0
-396 -469 0
-396 -470 0
-396 -471 0
-396 -472 0
-396 -473 0
-396 -474 0
-396 -475 0
-396 -476 0
-396 -477 0
-396 -478 0
-396 -479 0
-396 -480 0
-396 -481 0
-396 -482 0
-396 -483 0
-396 -484 0
-396 -485 0
-396 -486 0
-396 -487 0
-396 -488 0
-396 -489 0
-396 -490 0
-396 -491 0
-396 -492 0
-396 -493 0
-396 -494 0
-396 -495 0
-396 -496 0
-396 -497 0
-396 -498 0
-396 -499 0
-396 -500 0
-396 -501 0
-396 -502 0
-396 -503 0
-396 -504 0
-396 -505 0
-396 -506 0
-396 -507 0
-396 -508 0
-396 -509 0
-396 -510 0
-396 -511 0
-396 -512 0
-397 -398 0
-397 -399 0
-397 -400 0
-397 -401 0
-397 -402 0
-397 -403 0
-397 -404 0
-397 -405 0
-397 -406 0
-397 -407 0
-397 -408 0
-397 -409 0
-397 -410 0
-397 -411 0
-397 -412 0
-397 -413 0
-397 -414 0
-397 -415 0
-397 -416 0
-397 -417 0
-397 -418 0
-397 -419 0
-397 -420 0
-397 -421 0
-397 -422 0
-397 -423 0
-397 -424 0
-397 -425 0
-397 -426 0
-397 -427 0
-397 -428 0
-397 -429 0
-397 -430 0
-397 -431 0
-397 -432 0
-397 -433 0
-397 -434 0
-397 -435 0
-397 -436 0
-397 -437 0
-397 -438 0
-397 -439 0
-397 -440 0
-397 -441 0
-397 -442 0
-397 -443 0
-397 -444 0
-397 -445 0
-397 -446 0
-397 -447 0
-397 -448 0
-397 -449 0
-397 -450 0
-397 -451 0
-397 -452 0
-397 -453 0
-397 -454 0
-397 -455 0
-397 -456 0
-397 -457 0
-397 -458 0
-397 -459 0
-397 -460 0
-397 -461 0
-397 -462 0
-397 -463 0
-397 -464 0
-397 -465 0
-397 -466 0
-397 -467 0
-397 -468 0
-397 -469 0
-397 -470 0
-397 -471 0
-397 -472 0
-397 -473 0
-397 -474 0
-397 -475 0
-397 -476 0
-397 -477 0
-397 -478 0
-397 -479 0
-397 -480 0
-397 -481 0
-397 -482 0
-397 -483 0
-397 -484 0
-397 -485 0
-397 -486 0
-397 -487 0
-397 -488 0
-397 -489 0
-397 -490 0
-397 -491 0
-397 -492 0
-397 -493 0
-397 -494 0
-397 -495 0
-397 -496 0
-397 -497 0
-397 -498 0
-397 -499 0
-397 -500 0
-397 -501 0
-397 -502 0
-397 -503 0
-397 -504 0
-397 -505 0
-397 -506 0
-397 -507 0
-397 -508 0
-397 -509 0
-397 -510 0
-397 -511 0
-397 -512 0
-398 -399 0
-398 -400 0
-398 -401 0
-398 -402 0
-398 -403 0
-398 -404 0
-398 -405 0
-398 -406 0
-398 -407 0
-398 -408 0
-398 -409 0
-398 -410 0
-398 -411 0
-398 -412 0
-398 -413 0
-398 -414 0
-398 -415 0
-398 -416 0
-398 -417 0
-398 -418 0
-398 -419 0
-398 -420 0
-398 -421 0
-398 -422 0
-398 -423 0
-398 -424 0
-398 -425 0
-398 -426 0
-398 -427 0
-398 -428 0
-398 -429 0
-398 -430 0
-398 -431 0
-398 -432 0
-398 -433 0
-398 -434 0
-398 -435 0
-398 -436 0
-398 -437 0
-398 -438 0
-398 -439 0
-398 -440 0
-398 -441 0
-398 -442 0
-398 -443 0
-398 -444 0
-398 -445 0
-398 -446 0
-398 -447 0
-398 -448 0
-398 -449 0
-398 -450 0
-398 -451 0
-398 -452 0
-398 -453 0
-398 -454 0
-398 -455 0
-398 -456 0
-398 -457 0
-398 -458 0
-398 -459 0
-398 -460 0
-398 -461 0
-398 -462 0
-398 -463 0
-398 -464 0
-398 -465 0
-398 -466 0
-398 -467 0
-398 -468 0
-398 -469 0
-398 -470 0
-398 -471 0
-398 -472 0
-398 -473 0
-398 -474 0
-398 -475 0
-398 -476 0
-398 -477 0
-398 -478 0
-398 -479 0
-398 -480 0
-398 -481 0
-398 -482 0
-398 -483 0
-398 -484 0
-398 -485 0
-398 -486 0
-398 -487 0
-398 -488 0
-398 -489 0
-398 -490 0
-398 -491 0
-398 -492 0
-398 -493 0
-398 -494 0
-398 -495 0
-398 -496 0
-398 -497 0
-398 -498 0
-398 -499 0
-398 -500 0
-398 -501 0
-398 -502 0
-398 -503 0
-398 -504 0
-398 -505 0
-398 -506 0
-398 -507 0
-398 -508 0
-398 -509 0
-398 -510 0
-398 -511 0
-398 -512 0
-399 -400 0
-399 -401 0
-399 -402 0
-399 -403 0
-399 -404 0
-399 -405 0
-399 -406 0
-399 -407 0
-399 -408 0
-399 -409 0
-399 -410 0
-399 -411 0
-399 -412 0
-399 -413 0
-399 -414 0
-399 -415 0
-399 -416 0
-399 -417 0
-399 -418 0
-399 -419 0
-399 -420 0
-399 -421 0
-399 -422 0
-399 -423 0
-399 -424 0
-399 -425 0
-399 -426 0
-399 -427 0
-399 -428 0
-399 -429 0
-399 -430 0
-399 -431 0
-399 -432 0
-399 -433 0
-399 -434 0
-399 -435 0
-399 -436 0
-399 -437 0
-399 -438 0
-399 -439 0
-399 -440 0
-399 -441 0
-399 -442 0
-399 -443 0
-399 -444 0
-399 -445 0
-399 -446 0
-399 -447 0
-399 -448 0
-399 -449 0
-399 -450 0
-399 -451 0
-399 -452 0
-399 -453 0
-399 -454 0
-399 -455 0
-399 -456 0
-399 -457 0
-399 -458 0
-399 -459 0
-399 -460 0
-399 -461 0
-399 -462 0
-399 -463 0
-399 -464 0
-399 -465 0
-399 -466 0
-399 -467 0
-399 -468 0
-399 -469 0
-399 -470 0
-399 -471 0
-399 -472 0
-399 -473 0
-399 -474 0
-399 -475 0
-399 -476 0
-399 -477 0
-399 -478 0
-399 -479 0
-399 -480 0
-399 -481 0
-399 -482 0
-399 -483 0
-399 -484 0
-399 -485 0
-399 -486 0
-399 -487 0
-399 -488 0
-399 -489 0
-399 -490 0
-399 -491 0
-399 -492 0
-399 -493 0
-399 -494 0
-399 -495 0
-399 -496 0
-399 -497 0
-399 -498 0
-399 -499 0
-399 -500 0
-399 -501 0
-399 -502 0
-399 -503 0
-399 -504 0
-399 -505 0
-399 -506 0
-399 -507 0
-399 -508 0
-399 -509 0
-399 -510 0
-399 -511 0
-399 -512 0
-400 -401 0
-400 -402 0
-400 -403 0
-400 -404 0
-400 -405 0
-400 -406 0
-400 -407 0
-400 -408 0
-400 -409 0
-400 -410 0
-400 -411 0
-400 -412 0
-400 -413 0
-400 -414 0
-400 -415 0
-400 -416 0
-400 -417 0
-400 -418 0
-400 -419 0
-400 -420 0
-400 -421 0
-400 -422 0
-400 -423 0
-400 -424 0
-400 -425 0
-400 -426 0
-400 -427 0
-400 -428 0
-400 -429 0
-400 -430 0
-400 -431 0
-400 -432 0
-400 -433 0
-400 -434 0
-400 -435 0
-400 -436 0
-400 -437 0
-400 -438 0
-400 -439 0
-400 -440 0
-400 -441 0
-400 -442 0
-400 -443 0
-400 -444 0
-400 -445 0
-400 -446 0
-400 -447 0
-400 -448 0
-400 -449 0
-400 -450 0
-400 -451 0
-400 -452 0
-400 -453 0
-400 -454 0
-400 -455 0
-400 -456 0
-400 -457 0
-400 -458 0
-400 -459 0
-400 -460 0
-400 -461 0
-400 -462 0
-400 -463 0
-400 -464 0
-400 -465 0
-400 -466 0
-400 -467 0
-400 -468 0
-400 -469 0
-400 -470 0
-400 -471 0
-400 -472 0
-400 -473 0
-400 -474 0
-400 -475 0
-400 -476 0
-400 -477 0
-400 -478 0
-400 -479 0
-400 -480 0
-400 -481 0
-400 -482 0
-400 -483 0
-400 -484 0
-400 -485 0
-400 -486 0
-400 -487 0
-400 -488 0
-400 -489 0
-400 -490 0
-400 -491 0
-400 -492 0
-400 -493 0
-400 -494 0
-400 -495 0
-400 -496 0
-400 -497 0
-400 -498 0
-400 -499 0
-400 -500 0
-400 -501 0
-400 -502 0
-400 -503 0
-400 -504 0
-400 -505 0
-400 -506 0
-400 -507 0
-400 -508 0
-400 -509 0
-400 -510 0
-400 -511 0
-400 -512 0
-401 -402 0
-401 -403 0
-401 -404 0
-401 -405 0
-401 -406 0
-401 -407 0
-401 -408 0
-401 -409 0
-401 -410 0
-401 -411 0
-401 -412 0
-401 -413 0
-401 -414 0
-401 -415 0
-401 -416 0
-401 -417 0
-401 -418 0
-401 -419 0
-401 -420 0
-401 -421 0
-401 -422 0
-401 -423 0
-401 -424 0
-401 -425 0
-401 -426 0
-401 -427 0
-401 -428 0
-401 -429 0
-401 -430 0
-401 -431 0
-401 -432 0
-401 -433 0
-401 -434 0
-401 -435 0
-401 -436 0
-401 -437 0
-401 -438 0
-401 -439 0
-401 -440 0
-401 -441 0
-401 -442 0
-401 -443 0
-401 -444 0
-401 -445 0
-401 -446 0
-401 -447 0
-401 -448 0
-401 -449 0
-401 -450 0
-401 -451 0
-401 -452 0
-401 -453 0
-401 -454 0
-401 -455 0
-401 -456 0
-401 -457 0
-401 -458 0
-401 -459 0
-401 -460 0
-401 -461 0
-401 -462 0
-401 -463 0
-401 -464 0
-401 -465 0
-401 -466 0
-401 -467 0
-401 -468 0
-401 -469 0
-401 -470 0
-401 -471 0
-401 -472 0
-401 -473 0
-401 -474 0
-401 -475 0
-401 -476 0
-401 -477 0
-401 -478 0
-401 -479 0
-401 -480 0
-401 -481 0
-401 -482 0
-401 -483 0
-401 -484 0
-401 -485 0
-401 -486 0
-401 -487 0
-401 -488 0
-401 -489 0
-401 -490 0
-401 -491 0
-401 -492 0
-401 -493 0
-401 -494 0
-401 -495 0
-401 -496 0
-401 -497 0
-401 -498 0
-401 -499 0
-401 -500 0
-401 -501 0
-401 -502 0
-401 -503 0
-401 -504 0
-401 -505 0
-401 -506 0
-401 -507 0
-401 -508 0
-401 -509 0
-401 -510 0
-401 -511 0
-401 -512 0
-402 -403 0
-402 -404 0
-402 -405 0
-402 -406 0
-402 -407 0
-402 -408 0
-402 -409 0
-402 -410 0
-402 -411 0
-402 -412 0
-402 -413 0
-402 -414 0
-402 -415 0
-402 -416 0
-402 -417 0
-402 -418 0
-402 -419 0
-402 -420 0
-402 -421 0
-402 -422 0
-402 -423 0
-402 -424 0
-402 -425 0
-402 -426 0
-402 -427 0
-402 -428 0
-402 -429 0
-402 -430 0
-402 -431 0
-402 -432 0
-402 -433 0
-402 -434 0
-402 -435 0
-402 -436 0
-402 -437 0
-402 -438 0
-402 -439 0
-402 -440 0
-402 -441 0
-402 -442 0
-402 -443 0
-402 -444 0
-402 -445 0
-402 -446 0
-402 -447 0
-402 -448 0
-402 -449 0
-402 -450 0
-402 -451 0
-402 -452 0
-402 -453 0
-402 -454 0
-402 -455 0
-402 -456 0
-402 -457 0
-402 -458 0
-402 -459 0
-402 -460 0
-402 -461 0
-402 -462 0
-402 -463 0
-402 -464 0
-402 -465 0
-402 -466 0
-402 -467 0
-402 -468 0
-402 -469 0
-402 -470 0
-402 -471 0
-402 -472 0
-402 -473 0
-402 -474 0
-402 -475 0
-402 -476 0
-402 -477 0
-402 -478 0
-402 -479 0
-402 -480 0
-402 -481 0
-402 -482 0
-402 -483 0
-402 -484 0
-402 -485 0
-402 -486 0
-402 -487 0
-402 -488 0
-402 -489 0
-402 -490 0
-402 -491 0
-402 -492 0
-402 -493 0
-402 -494 0
-402 -495 0
-402 -496 0
-402 -497 0
-402 -498 0
-402 -499 0
-402 -500 0
-402 -501 0
-402 -502 0
-402 -503 0
-402 -504 0
-402 -505 0
-402 -506 0
-402 -507 0
-402 -508 0
-402 -509 0
-402 -510 0
-402 -511 0
-402 -512 0
-403 -404 0
-403 -405 0
-403 -406 0
-403 -407 0
-403 -408 0
-403 -409 0
-403 -410 0
-403 -411 0
-403 -412 0
-403 -413 0
-403 -414 0
-403 -415 0
-403 -416 0
-403 -417 0
-403 -418 0
-403 -419 0
-403 -420 0
-403 -421 0
-403 -422 0
-403 -423 0
-403 -424 0
-403 -425 0
-403 -426 0
-403 -427 0
-403 -428 0
-403 -429 0
-403 -430 0
-403 -431 0
-403 -432 0
-403 -433 0
-403 -434 0
-403 -435 0
-403 -436 0
-403 -437 0
-403 -438 0
-403 -439 0
-403 -440 0
-403 -441 0
-403 -442 0
-403 -443 0
-403 -444 0
-403 -445 0
-403 -446 0
-403 -447 0
-403 -448 0
-403 -449 0
-403 -450 0
-403 -451 0
-403 -452 0
-403 -453 0
-403 -454 0
-403 -455 0
-403 -456 0
-403 -457 0
-403 -458 0
-403 -459 0
-403 -460 0
-403 -461 0
-403 -462 0
-403 -463 0
-403 -464 0
-403 -465 0
-403 -466 0
-403 -467 0
-403 -468 0
-403 -469 0
-403 -470 0
-403 -471 0
-403 -472 0
-403 -473 0
-403 -474 0
-403 -475 0
-403 -476 0
-403 -477 0
-403 -478 0
-403 -479 0
-403 -480 0
-403 -481 0
-403 -482 0
-403 -483 0
-403 -484 0
-403 -485 0
-403 -486 0
-403 -487 0
-403 -488 0
-403 -489 0
-403 -490 0
-403 -491 0
-403 -492 0
-403 -493 0
-403 -494 0
-403 -495 0
-403 -496 0
-403 -497 0
-403 -498 0
-403 -499 0
-403 -500 0
-403 -501 0
-403 -502 0
-403 -503 0
-403 -504 0
-403 -505 0
-403 -506 0
-403 -507 0
-403 -508 0
-403 -509 0
-403 -510 0
-403 -511 0
-403 -512 0
-404 -405 0
-404 -406 0
-404 -407 0
-404 -408 0
-404 -409 0
-404 -410 0
-404 -411 0
-404 -412 0
-404 -413 0
-404 -414 0
-404 -415 0
-404 -416 0
-404 -417 0
-404 -418 0
-404 -419 0
-404 -420 0
-404 -421 0
-404 -422 0
-404 -423 0
-404 -424 0
-404 -425 0
-404 -426 0
-404 -427 0
-404 -428 0
-404 -429 0
-404 -430 0
-404 -431 0
-404 -432 0
-404 -433 0
-404 -434 0
-404 -435 0
-404 -436 0
-404 -437 0
-404 -438 0
-404 -439 0
-404 -440 0
-404 -441 0
-404 -442 0
-404 -443 0
-404 -444 0
-404 -445 0
-404 -446 0
-404 -447 0
-404 -448 0
-404 -449 0
-404 -450 0
-404 -451 0
-404 -452 0
-404 -453 0
-404 -454 0
-404 -455 0
-404 -456 0
-404 -457 0
-404 -458 0
-404 -459 0
-404 -460 0
-404 -461 0
-404 -462 0
-404 -463 0
-404 -464 0
-404 -465 0
-404 -466 0
-404 -467 0
-404 -468 0
-404 -469 0
-404 -470 0
-404 -471 0
-404 -472 0
-404 -473 0
-404 -474 0
-404 -475 0
-404 -476 0
-404 -477 0
-404 -478 0
-404 -479 0
-404 -480 0
-404 -481 0
-404 -482 0
-404 -483 0
-404 -484 0
-404 -485 0
-404 -486 0
-404 -487 0
-404 -488 0
-404 -489 0
-404 -490 0
-404 -491 0
-404 -492 0
-404 -493 0
-404 -494 0
-404 -495 0
-404 -496 0
-404 -497 0
-404 -498 0
-404 -499 0
-404 -500 0
-404 -501 0
-404 -502 0
-404 -503 0
-404 -504 0
-404 -505 0
-404 -506 0
-404 -507 0
-404 -508 0
-404 -509 0
-404 -510 0
-404 -511 0
-404 -512 0
-405 -406 0
-405 -407 0
-405 -408 0
-405 -409 0
-405 -410 0
-405 -411 0
-405 -412 0
-405 -413 0
-405 -414 0
-405 -415 0
-405 -416 0
-405 -417 0
-405 -418 0
-405 -419 0
-405 -420 0
-405 -421 0
-405 -422 0
-405 -423 0
-405 -424 0
-405 -425 0
-405 -426 0
-405 -427 0
-405 -428 0
-405 -429 0
-405 -430 0
-405 -431 0
-405 -432 0
-405 -433 0
-405 -434 0
-405 -435 0
-405 -436 0
-405 -437 0
-405 -438 0
-405 -439 0
-405 -440 0
-405 -441 0
-405 -442 0
-405 -443 0
-405 -444 0
-405 -445 0
-405 -446 0
-405 -447 0
-405 -448 0
-405 -449 0
-405 -450 0
-405 -451 0
-405 -452 0
-405 -453 0
-405 -454 0
-405 -455 0
-405 -456 0
-405 -457 0
-405 -458 0
-405 -459 0
-405 -460 0
-405 -461 0
-405 -462 0
-405 -463 0
-405 -464 0
-405 -465 0
-405 -466 0
-405 -467 0
-405 -468 0
-405 -469 0
-405 -470 0
-405 -471 0
-405 -472 0
-405 -473 0
-405 -474 0
-405 -475 0
-405 -476 0
-405 -477 0
-405 -478 0
-405 -479 0
-405 -480 0
-405 -481 0
-405 -482 0
-405 -483 0
-405 -484 0
-405 -485 0
-405 -486 0
-405 -487 0
-405 -488 0
-405 -489 0
-405 -490 0
-405 -491 0
-405 -492 0
-405 -493 0
-405 -494 0
-405 -495 0
-405 -496 0
-405 -497 0
-405 -498 0
-405 -499 0
-405 -500 0
-405 -501 0
-405 -502 0
-405 -503 0
-405 -504 0
-405 -505 0
-405 -506 0
-405 -507 0
-405 -508 0
-405 -509 0
-405 -510 0
-405 -511 0
-405 -512 0
-406 -407 0
-406 -408 0
-406 -409 0
-406 -410 0
-406 -411 0
-406 -412 0
-406 -413 0
-406 -414 0
-406 -415 0
-406 -416 0
-406 -417 0
-406 -418 0
-406 -419 0
-406 -420 0
-406 -421 0
-406 -422 0
-406 -423 0
-406 -424 0
-406 -425 0
-406 -426 0
-406 -427 0
-406 -428 0
-406 -429 0
-406 -430 0
-406 -431 0
-406 -432 0
-406 -433 0
-406 -434 0
-406 -435 0
-406 -436 0
-406 -437 0
-406 -438 0
-406 -439 0
-406 -440 0
-406 -441 0
-406 -442 0
-406 -443 0
-406 -444 0
-406 -445 0
-406 -446 0
-406 -447 0
-406 -448 0
-406 -449 0
-406 -450 0
-406 -451 0
-406 -452 0
-406 -453 0
-406 -454 0
-406 -455 0
-406 -456 0
-406 -457 0
-406 -458 0
-406 -459 0
-406 -460 0
-406 -461 0
-406 -462 0
-406 -463 0
-406 -464 0
-406 -465 0
-406 -466 0
-406 -467 0
-406 -468 0
-406 -469 0
-406 -470 0
-406 -471 0
-406 -472 0
-406 -473 0
-406 -474 0
-406 -475 0
-406 -476 0
-406 -477 0
-406 -478 0
-406 -479 0
-406 -480 0
-406 -481 0
-406 -482 0
-406 -483 0
-406 -484 0
-406 -485 0
-406 -486 0
-406 -487 0
-406 -488 0
-406 -489 0
-406 -490 0
-406 -491 0
-406 -492 0
-406 -493 0
-406 -494 0
-406 -495 0
-406 -496 0
-406 -497 0
-406 -498 0
-406 -499 0
-406 -500 0
-406 -501 0
-406 -502 0
-406 -503 0
-406 -504 0
-406 -505 0
-406 -506 0
-406 -507 0
-406 -508 0
-406 -509 0
-406 -510 0
-406 -511 0
-406 -512 0
-407 -408 0
-407 -409 0
-407 -410 0
-407 -411 0
-407 -412 0
-407 -413 0
-407 -414 0
-407 -415 0
-407 -416 0
-407 -417 0
-407 -418 0
-407 -419 0
-407 -420 0
-407 -421 0
-407 -422 0
-407 -423 0
-407 -424 0
-407 -425 0
-407 -426 0
-407 -427 0
-407 -428 0
-407 -429 0
-407 -430 0
-407 -431 0
-407 -432 0
-407 -433 0
-407 -434 0
-407 -435 0
-407 -436 0
-407 -437 0
-407 -438 0
-407 -439 0
-407 -440 0
-407 -441 0
-407 -442 0
-407 -443 0
-407 -444 0
-407 -445 0
-407 -446 0
-407 -447 0
-407 -448 0
-407 -449 0
-407 -450 0
-407 -451 0
-407 -452 0
-407 -453 0
-407 -454 0
-407 -455 0
-407 -456 0
-407 -457 0
-407 -458 0
-407 -459 0
-407 -460 0
-407 -461 0
-407 -462 0
-407 -463 0
-407 -464 0
-407 -465 0
-407 -466 0
-407 -467 0
-407 -468 0
-407 -469 0
-407 -470 0
-407 -471 0
-407 -472 0
-407 -473 0
-407 -474 0
-407 -475 0
-407 -476 0
-407 -477 0
-407 -478 0
-407 -479 0
-407 -480 0
-407 -481 0
-407 -482 0
-407 -483 0
-407 -484 0
-407 -485 0
-407 -486 0
-407 -487 0
-407 -488 0
-407 -489 0
-407 -490 0
-407 -491 0
-407 -492 0
-407 -493 0
-407 -494 0
-407 -495 0
-407 -496 0
-407 -497 0
-407 -498 0
-407 -499 0
-407 -500 0
-407 -501 0
-407 -502 0
-407 -503 0
-407 -504 0
-407 -505 0
-407 -506 0
-407 -507 0
-407 -508 0
-407 -509 0
-407 -510 0
-407 -511 0
-407 -512 0
-408 -409 0
-408 -410 0
-408 -411 0
-408 -412 0
-408 -413 0
-408 -414 0
-408 -415 0
-408 -416 0
-408 -417 0
-408 -418 0
-408 -419 0
-408 -420 0
-408 -421 0
-408 -422 0
-408 -423 0
-408 -424 0
-408 -425 0
-408 -426 0
-408 -427 0
-408 -428 0
-408 -429 0
-408 -430 0
-408 -431 0
-408 -432 0
-408 -433 0
-408 -434 0
-408 -435 0
-408 -436 0
-408 -437 0
-408 -438 0
-408 -439 0
-408 -440 0
-408 -441 0
-408 -442 0
-408 -443 0
-408 -444 0
-408 -445 0
-408 -446 0
-408 -447 0
-408 -448 0
-408 -449 0
-408 -450 0
-408 -451 0
-408 -452 0
-408 -453 0
-408 -454 0
-408 -455 0
-408 -456 0
-408 -457 0
-408 -458 0
-408 -459 0
-408 -460 0
-408 -461 0
-408 -462 0
-408 -463 0
-408 -464 0
-408 -465 0
-408 -466 0
-408 -467 0
-408 -468 0
-408 -469 0
-408 -470 0
-408 -471 0
-408 -472 0
-408 -473 0
-408 -474 0
-408 -475 0
-408 -476 0
-408 -477 0
-408 -478 0
-408 -479 0
-408 -480 0
-408 -481 0
-408 -482 0
-408 -483 0
-408 -484 0
-408 -485 0
-408 -486 0
-408 -487 0
-408 -488 0
-408 -489 0
-408 -490 0
-408 -491 0
-408 -492 0
-408 -493 0
-408 -494 0
-408 -495 0
-408 -496 0
-408 -497 0
-408 -498 0
-408 -499 0
-408 -500 0
-408 -501 0
-408 -502 0
-408 -503 0
-408 -504 0
-408 -505 0
-408 -506 0
-408 -507 0
-408 -508 0
-408 -509 0
-408 -510 0
-408 -511 0
-408 -512 0
-409 -410 0
-409 -411 0
-409 -412 0
-409 -413 0
-409 -414 0
-409 -415 0
-409 -416 0
-409 -417 0
-409 -418 0
-409 -419 0
-409 -420 0
-409 -421 0
-409 -422 0
-409 -423 0
-409 -424 0
-409 -425 0
-409 -426 0
-409 -427 0
-409 -428 0
-409 -429 0
-409 -430 0
-409 -431 0
-409 -432 0
-409 -433 0
-409 -434 0
-409 -435 0
-409 -436 0
-409 -437 0
-409 -438 0
-409 -439 0
-409 -440 0
-409 -441 0
-409 -442 0
-409 -443 0
-409 -444 0
-409 -445 0
-409 -446 0
-409 -447 0
-409 -448 0
-409 -449 0
-409 -450 0
-409 -451 0
-409 -452 0
-409 -453 0
-409 -454 0
-409 -455 0
-409 -456 0
-409 -457 0
-409 -458 0
-409 -459 0
-409 -460 0
-409 -461 0
-409 -462 0
-409 -463 0
-409 -464 0
-409 -465 0
-409 -466 0
-409 -467 0
-409 -468 0
-409 -469 0
-409 -470 0
-409 -471 0
-409 -472 0
-409 -473 0
-409 -474 0
-409 -475 0
-409 -476 0
-409 -477 0
-409 -478 0
-409 -479 0
-409 -480 0
-409 -481 0
-409 -482 0
-409 -483 0
-409 -484 0
-409 -485 0
-409 -486 0
-409 -487 0
-409 -488 0
-409 -489 0
-409 -490 0
-409 -491 0
-409 -492 0
-409 -493 0
-409 -494 0
-409 -495 0
-409 -496 0
-409 -497 0
-409 -498 0
-409 -499 0
-409 -500 0
-409 -501 0
-409 -502 0
-409 -503 0
-409 -504 0
-409 -505 0
-409 -506 0
-409 -507 0
-409 -508 0
-409 -509 0
-409 -510 0
-409 -511 0
-409 -512 0
-410 -411 0
-410 -412 0
-410 -413 0
-410 -414 0
-410 -415 0
-410 -416 0
-410 -417 0
-410 -418 0
-410 -419 0
-410 -420 0
-410 -421 0
-410 -422 0
-410 -423 0
-410 -424 0
-410 -425 0
-410 -426 0
-410 -427 0
-410 -428 0
-410 -429 0
-410 -430 0
-410 -431 0
-410 -432 0
-410 -433 0
-410 -434 0
-410 -435 0
-410 -436 0
-410 -437 0
-410 -438 0
-410 -439 0
-410 -440 0
-410 -441 0
-410 -442 0
-410 -443 0
-410 -444 0
-410 -445 0
-410 -446 0
-410 -447 0
-410 -448 0
-410 -449 0
-410 -450 0
-410 -451 0
-410 -452 0
-410 -453 0
-410 -454 0
-410 -455 0
-410 -456 0
-410 -457 0
-410 -458 0
-410 -459 0
-410 -460 0
-410 -461 0
-410 -462 0
-410 -463 0
-410 -464 0
-410 -465 0
-410 -466 0
-410 -467 0
-410 -468 0
-410 -469 0
-410 -470 0
-410 -471 0
-410 -472 0
-410 -473 0
-410 -474 0
-410 -475 0
-410 -476 0
-410 -477 0
-410 -478 0
-410 -479 0
-410 -480 0
-410 -481 0
-410 -482 0
-410 -483 0
-410 -484 0
-410 -485 0
-410 -486 0
-410 -487 0
-410 -488 0
-410 -489 0
-410 -490 0
-410 -491 0
-410 -492 0
-410 -493 0
-410 -494 0
-410 -495 0
-410 -496 0
-410 -497 0
-410 -498 0
-410 -499 0
-410 -500 0
-410 -501 0
-410 -502 0
-410 -503 0
-410 -504 0
-410 -505 0
-410 -506 0
-410 -507 0
-410 -508 0
-410 -509 0
-410 -510 0
-410 -511 0
-410 -512 0
-411 -412 0
-411 -413 0
-411 -414 0
-411 -415 0
-411 -416 0
-411 -417 0
-411 -418 0
-411 -419 0
-411 -420 0
-411 -421 0
-411 -422 0
-411 -423 0
-411 -424 0
-411 -425 0
-411 -426 0
-411 -427 0
-411 -428 0
-411 -429 0
-411 -430 0
-411 -431 0
-411 -432 0
-411 -433 0
-411 -434 0
-411 -435 0
-411 -436 0
-411 -437 0
-411 -438 0
-411 -439 0
-411 -440 0
-411 -441 0
-411 -442 0
-411 -443 0
-411 -444 0
-411 -445 0
-411 -446 0
-411 -447 0
-411 -448 0
-411 -449 0
-411 -450 0
-411 -451 0
-411 -452 0
-411 -453 0
-411 -454 0
-411 -455 0
-411 -456 0
-411 -457 0
-411 -458 0
-411 -459 0
-411 -460 0
-411 -461 0
-411 -462 0
-411 -463 0
-411 -464 0
-411 -465 0
-411 -466 0
-411 -467 0
-411 -468 0
-411 -469 0
-411 -470 0
-411 -471 0
-411 -472 0
-411 -473 0
-411 -474 0
-411 -475 0
-411 -476 0
-411 -477 0
-411 -478 0
-411 -479 0
-411 -480 0
-411 -481 0
-411 -482 0
-411 -483 0
-411 -484 0
-411 -485 0
-411 -486 0
-411 -487 0
-411 -488 0
-411 -489 0
-411 -490 0
-411 -491 0
-411 -492 0
-411 -493 0
-411 -494 0
-411 -495 0
-411 -496 0
-411 -497 0
-411 -498 0
-411 -499 0
-411 -500 0
-411 -501 0
-411 -502 0
-411 -503 0
-411 -504 0
-411 -505 0
-411 -506 0
-411 -507 0
-411 -508 0
-411 -509 0
-411 -510 0
-411 -511 0
-411 -512 0
-412 -413 0
-412 -414 0
-412 -415 0
-412 -416 0
-412 -417 0
-412 -418 0
-412 -419 0
-412 -420 0
-412 -421 0
-412 -422 0
-412 -423 0
-412 -424 0
-412 -425 0
-412 -426 0
-412 -427 0
-412 -428 0
-412 -429 0
-412 -430 0
-412 -431 0
-412 -432 0
-412 -433 0
-412 -434 0
-412 -435 0
-412 -436 0
-412 -437 0
-412 -438 0
-412 -439 0
-412 -440 0
-412 -441 0
-412 -442 0
-412 -443 0
-412 -444 0
-412 -445 0
-412 -446 0
-412 -447 0
-412 -448 0
-412 -449 0
-412 -450 0
-412 -451 0
-412 -452 0
-412 -453 0
-412 -454 0
-412 -455 0
-412 -456 0
-412 -457 0
-412 -458 0
-412 -459 0
-412 -460 0
-412 -461 0
-412 -462 0
-412 -463 0
-412 -464 0
-412 -465 0
-412 -466 0
-412 -467 0
-412 -468 0
-412 -469 0
-412 -470 0
-412 -471 0
-412 -472 0
-412 -473 0
-412 -474 0
-412 -475 0
-412 -476 0
-412 -477 0
-412 -478 0
-412 -479 0
-412 -480 0
-412 -481 0
-412 -482 0
-412 -483 0
-412 -484 0
-412 -485 0
-412 -486 0
-412 -487 0
-412 -488 0
-412 -489 0
-412 -490 0
-412 -491 0
-412 -492 0
-412 -493 0
-412 -494 0
-412 -495 0
-412 -496 0
-412 -497 0
-412 -498 0
-412 -499 0
-412 -500 0
-412 -501 0
-412 -502 0
-412 -503 0
-412 -504 0
-412 -505 0
-412 -506 0
-412 -507 0
-412 -508 0
-412 -509 0
-412 -510 0
-412 -511 0
-412 -512 0
-413 -414 0
-413 -415 0
-413 -416 0
-413 -417 0
-413 -418 0
-413 -419 0
-413 -420 0
-413 -421 0
-413 -422 0
-413 -423 0
-413 -424 0
-413 -425 0
-413 -426 0
-413 -427 0
-413 -428 0
-413 -429 0
-413 -430 0
-413 -431 0
-413 -432 0
-413 -433 0
-413 -434 0
-413 -435 0
-413 -436 0
-413 -437 0
-413 -438 0
-413 -439 0
-413 -440 0
-413 -441 0
-413 -442 0
-413 -443 0
-413 -444 0
-413 -445 0
-413 -446 0
-413 -447 0
-413 -448 0
-413 -449 0
-413 -450 0
-413 -451 0
-413 -452 0
-413 -453 0
-413 -454 0
-413 -455 0
-413 -456 0
-413 -457 0
-413 -458 0
-413 -459 0
-413 -460 0
-413 -461 0
-413 -462 0
-413 -463 0
-413 -464 0
-413 -465 0
-413 -466 0
-413 -467 0
-413 -468 0
-413 -469 0
-413 -470 0
-413 -471 0
-413 -472 0
-413 -473 0
-413 -474 0
-413 -475 0
-413 -476 0
-413 -477 0
-413 -478 0
-413 -479 0
-413 -480 0
-413 -481 0
-413 -482 0
-413 -483 0
-413 -484 0
-413 -485 0
-413 -486 0
-413 -487 0
-413 -488 0
-413 -489 0
-413 -490 0
-413 -491 0
-413 -492 0
-413 -493 0
-413 -494 0
-413 -495 0
-413 -496 0
-413 -497 0
-413 -498 0
-413 -499 0
-413 -500 0
-413 -501 0
-413 -502 0
-413 -503 0
-413 -504 0
-413 -505 0
-413 -506 0
-413 -507 0
-413 -508 0
-413 -509 0
-413 -510 0
-413 -511 0
-413 -512 0
-414 -415 0
-414 -416 0
-414 -417 0
-414 -418 0
-414 -419 0
-414 -420 0
-414 -421 0
-414 -422 0
-414 -423 0
-414 -424 0
-414 -425 0
-414 -426 0
-414 -427 0
-414 -428 0
-414 -429 0
-414 -430 0
-414 -431 0
-414 -432 0
-414 -433 0
-414 -434 0
-414 -435 0
-414 -436 0
-414 -437 0
-414 -438 0
-414 -439 0
-414 -440 0
-414 -441 0
-414 -442 0
-414 -443 0
-414 -444 0
-414 -445 0
-414 -446 0
-414 -447 0
-414 -448 0
-414 -449 0
-414 -450 0
-414 -451 0
-414 -452 0
-414 -453 0
-414 -454 0
-414 -455 0
-414 -456 0
-414 -457 0
-414 -458 0
-414 -459 0
-414 -460 0
-414 -461 0
-414 -462 0
-414 -463 0
-414 -464 0
-414 -465 0
-414 -466 0
-414 -467 0
-414 -468 0
-414 -469 0
-414 -470 0
-414 -471 0
-414 -472 0
-414 -473 0
-414 -474 0
-414 -475 0
-414 -476 0
-414 -477 0
-414 -478 0
-414 -479 0
-414 -480 0
-414 -481 0
-414 -482 0
-414 -483 0
-414 -484 0
-414 -485 0
-414 -486 0
-414 -487 0
-414 -488 0
-414 -489 0
-414 -490 0
-414 -491 0
-414 -492 0
-414 -493 0
-414 -494 0
-414 -495 0
-414 -496 0
-414 -497 0
-414 -498 0
-414 -499 0
-414 -500 0
-414 -501 0
-414 -502 0
-414 -503 0
-414 -504 0
-414 -505 0
-414 -506 0
-414 -507 0
-414 -508 0
-414 -509 0
-414 -510 0
-414 -511 0
-414 -512 0
-415 -416 0
-415 -417 0
-415 -418 0
-415 -419 0
-415 -420 0
-415 -421 0
-415 -422 0
-415 -423 0
-415 -424 0
-415 -425 0
-415 -426 0
-415 -427 0
-415 -428 0
-415 -429 0
-415 -430 0
-415 -431 0
-415 -432 0
-415 -433 0
-415 -434 0
-415 -435 0
-415 -436 0
-415 -437 0
-415 -438 0
-415 -439 0
-415 -440 0
-415 -441 0
-415 -442 0
-415 -443 0
-415 -444 0
-415 -445 0
-415 -446 0
-415 -447 0
-415 -448 0
-415 -449 0
-415 -450 0
-415 -451 0
-415 -452 0
-415 -453 0
-415 -454 0
-415 -455 0
-415 -456 0
-415 -457 0
-415 -458 0
-415 -459 0
-415 -460 0
-415 -461 0
-415 -462 0
-415 -463 0
-415 -464 0
-415 -465 0
-415 -466 0
-415 -467 0
-415 -468 0
-415 -469 0
-415 -470 0
-415 -471 0
-415 -472 0
-415 -473 0
-415 -474 0
-415 -475 0
-415 -476 0
-415 -477 0
-415 -478 0
-415 -479 0
-415 -480 0
-415 -481 0
-415 -482 0
-415 -483 0
-415 -484 0
-415 -485 0
-415 -486 0
-415 -487 0
-415 -488 0
-415 -489 0
-415 -490 0
-415 -491 0
-415 -492 0
-415 -493 0
-415 -494 0
-415 -495 0
-415 -496 0
-415 -497 0
-415 -498 0
-415 -499 0
-415 -500 0
-415 -501 0
-415 -502 0
-415 -503 0
-415 -504 0
-415 -505 0
-415 -506 0
-415 -507 0
-415 -508 0
-415 -509 0
-415 -510 0
-415 -511 0
-415 -512 0
-416 -417 0
-416 -418 0
-416 -419 0
-416 -420 0
-416 -421 0
-416 -422 0
-416 -423 0
-416 -424 0
-416 -425 0
-416 -426 0
-416 -427 0
-416 -428 0
-416 -429 0
-416 -430 0
-416 -431 0
-416 -432 0
-416 -433 0
-416 -434 0
-416 -435 0
-416 -436 0
-416 -437 0
-416 -438 0
-416 -439 0
-416 -440 0
-416 -441 0
-416 -442 0
-416 -443 0
-416 -444 0
-416 -445 0
-416 -446 0
-416 -447 0
-416 -448 0
-416 -449 0
-416 -450 0
-416 -451 0
-416 -452 0
-416 -453 0
-416 -454 0
-416 -455 0
-416 -456 0
-416 -457 0
-416 -458 0
-416 -459 0
-416 -460 0
-416 -461 0
-416 -462 0
-416 -463 0
-416 -464 0
-416 -465 0
-416 -466 0
-416 -467 0
-416 -468 0
-416 -469 0
-416 -470 0
-416 -471 0
-416 -472 0
-416 -473 0
-416 -474 0
-416 -475 0
-416 -476 0
-416 -477 0
-416 -478 0
-416 -479 0
-416 -480 0
-416 -481 0
-416 -482 0
-416 -483 0
-416 -484 0
-416 -485 0
-416 -486 0
-416 -487 0
-416 -488 0
-416 -489 0
-416 -490 0
-416 -491 0
-416 -492 0
-416 -493 0
-416 -494 0
-416 -495 0
-416 -496 0
-416 -497 0
-416 -498 0
-416 -499 0
-416 -500 0
-416 -501 0
-416 -502 0
-416 -503 0
-416 -504 0
-416 -505 0
-416 -506 0
-416 -507 0
-416 -508 0
-416 -509 0
-416 -510 0
-416 -511 0
-416 -512 0
-417 -418 0
-417 -419 0
-417 -420 0
-417 -421 0
-417 -422 0
-417 -423 0
-417 -424 0
-417 -425 0
-417 -426 0
-417 -427 0
-417 -428 0
-417 -429 0
-417 -430 0
-417 -431 0
-417 -432 0
-417 -433 0
-417 -434 0
-417 -435 0
-417 -436 0
-417 -437 0
-417 -438 0
-417 -439 0
-417 -440 0
-417 -441 0
-417 -442 0
-417 -443 0
-417 -444 0
-417 -445 0
-417 -446 0
-417 -447 0
-417 -448 0
-417 -449 0
-417 -450 0
-417 -451 0
-417 -452 0
-417 -453 0
-417 -454 0
-417 -455 0
-417 -456 0
-417 -457 0
-417 -458 0
-417 -459 0
-417 -460 0
-417 -461 0
-417 -462 0
-417 -463 0
-417 -464 0
-417 -465 0
-417 -466 0
-417 -467 0
-417 -468 0
-417 -469 0
-417 -470 0
-417 -471 0
-417 -472 0
-417 -473 0
-417 -474 0
-417 -475 0
-417 -476 0
-417 -477 0
-417 -478 0
-417 -479 0
-417 -480 0
-417 -481 0
-417 -482 0
-417 -483 0
-417 -484 0
-417 -485 0
-417 -486 0
-417 -487 0
-417 -488 0
-417 -489 0
-417 -490 0
-417 -491 0
-417 -492 0
-417 -493 0
-417 -494 0
-417 -495 0
-417 -496 0
-417 -497 0
-417 -498 0
-417 -499 0
-417 -500 0
-417 -501 0
-417 -502 0
-417 -503 0
-417 -504 0
-417 -505 0
-417 -506 0
-417 -507 0
-417 -508 0
-417 -509 0
-417 -510 0
-417 -511 0
-417 -512 0
-418 -419 0
-418 -420 0
-418 -421 0
-418 -422 0
-418 -423 0
-418 -424 0
-418 -425 0
-418 -426 0
-418 -427 0
-418 -428 0
-418 -429 0
-418 -430 0
-418 -431 0
-418 -432 0
-418 -433 0
-418 -434 0
-418 -435 0
-418 -436 0
-418 -437 0
-418 -438 0
-418 -439 0
-418 -440 0
-418 -441 0
-418 -442 0
-418 -443 0
-418 -444 0
-418 -445 0
-418 -446 0
-418 -447 0
-418 -448 0
-418 -449 0
-418 -450 0
-418 -451 0
-418 -452 0
-418 -453 0
-418 -454 0
-418 -455 0
-418 -456 0
-418 -457 0
-418 -458 0
-418 -459 0
-418 -460 0
-418 -461 0
-418 -462 0
-418 -463 0
-418 -464 0
-418 -465 0
-418 -466 0
-418 -467 0
-418 -468 0
-418 -469 0
-418 -470 0
-418 -471 0
-418 -472 0
-418 -473 0
-418 -474 0
-418 -475 0
-418 -476 0
-418 -477 0
-418 -478 0
-418 -479 0
-418 -480 0
-418 -481 0
-418 -482 0
-418 -483 0
-418 -484 0
-418 -485 0
-418 -486 0
-418 -487 0
-418 -488 0
-418 -489 0
-418 -490 0
-418 -491 0
-418 -492 0
-418 -493 0
-418 -494 0
-418 -495 0
-418 -496 0
-418 -497 0
-418 -498 0
-418 -499 0
-418 -500 0
-418 -501 0
-418 -502 0
-418 -503 0
-418 -504 0
-418 -505 0
-418 -506 0
-418 -507 0
-418 -508 0
-418 -509 0
-418 -510 0
-418 -511 0
-418 -512 0
-419 -420 0
-419 -421 0
-419 -422 0
-419 -423 0
-419 -424 0
-419 -425 0
-419 -426 0
-419 -427 0
-419 -428 0
-419 -429 0
-419 -430 0
-419 -431 0
-419 -432 0
-419 -433 0
-419 -434 0
-419 -435 0
-419 -436 0
-419 -437 0
-419 -438 0
-419 -439 0
-419 -440 0
-419 -441 0
-419 -442 0
-419 -443 0
-419 -444 0
-419 -445 0
-419 -446 0
-419 -447 0
-419 -448 0
-419 -449 0
-419 -450 0
-419 -451 0
-419 -452 0
-419 -453 0
-419 -454 0
-419 -455 0
-419 -456 0
-419 -457 0
-419 -458 0
-419 -459 0
-419 -460 0
-419 -461 0
-419 -462 0
-419 -463 0
-419 -464 0
-419 -465 0
-419 -466 0
-419 -467 0
-419 -468 0
-419 -469 0
-419 -470 0
-419 -471 0
-419 -472 0
-419 -473 0
-419 -474 0
-419 -475 0
-419 -476 0
-419 -477 0
-419 -478 0
-419 -479 0
-419 -480 0
-419 -481 0
-419 -482 0
-419 -483 0
-419 -484 0
-419 -485 0
-419 -486 0
-419 -487 0
-419 -488 0
-419 -489 0
-419 -490 0
-419 -491 0
-419 -492 0
-419 -493 0
-419 -494 0
-419 -495 0
-419 -496 0
-419 -497 0
-419 -498 0
-419 -499 0
-419 -500 0
-419 -501 0
-419 -502 0
-419 -503 0
-419 -504 0
-419 -505 0
-419 -506 0
-419 -507 0
-419 -508 0
-419 -509 0
-419 -510 0
-419 -511 0
-419 -512 0
-420 -421 0
-420 -422 0
-420 -423 0
-420 -424 0
-420 -425 0
-420 -426 0
-420 -427 0
-420 -428 0
-420 -429 0
-420 -430 0
-420 -431 0
-420 -432 0
-420 -433 0
-420 -434 0
-420 -435 0
-420 -436 0
-420 -437 0
-420 -438 0
-420 -439 0
-420 -440 0
-420 -441 0
-420 -442 0
-420 -443 0
-420 -444 0
-420 -445 0
-420 -446 0
-420 -447 0
-420 -448 0
-420 -449 0
-420 -450 0
-420 -451 0
-420 -452 0
-420 -453 0
-420 -454 0
-420 -455 0
-420 -456 0
-420 -457 0
-420 -458 0
-420 -459 0
-420 -460 0
-420 -461 0
-420 -462 0
-420 -463 0
-420 -464 0
-420 -465 0
-420 -466 0
-420 -467 0
-420 -468 0
-420 -469 0
-420 -470 0
-420 -471 0
-420 -472 0
-420 -473 0
-420 -474 0
-420 -475 0
-420 -476 0
-420 -477 0
-420 -478 0
-420 -479 0
-420 -480 0
-420 -481 0
-420 -482 0
-420 -483 0
-420 -484 0
-420 -485 0
-420 -486 0
-420 -487 0
-420 -488 0
-420 -489 0
-420 -490 0
-420 -491 0
-420 -492 0
-420 -493 0
-420 -494 0
-420 -495 0
-420 -496 0
-420 -497 0
-420 -498 0
-420 -499 0
-420 -500 0
-420 -501 0
-420 -502 0
-420 -503 0
-420 -504 0
-420 -505 0
-420 -506 0
-420 -507 0
-420 -508 0
-420 -509 0
-420 -510 0
-420 -511 0
-420 -512 0
-421 -422 0
-421 -423 0
-421 -424 0
-421 -425 0
-421 -426 0
-421 -427 0
-421 -428 0
-421 -429 0
-421 -430 0
-421 -431 0
-421 -432 0
-421 -433 0
-421 -434 0
-421 -435 0
-421 -436 0
-421 -437 0
-421 -438 0
-421 -439 0
-421 -440 0
-421 -441 0
-421 -442 0
-421 -443 0
-421 -444 0
-421 -445 0
-421 -446 0
-421 -447 0
-421 -448 0
-421 -449 0
-421 -450 0
-421 -451 0
-421 -452 0
-421 -453 0
-421 -454 0
-421 -455 0
-421 -456 0
-421 -457 0
-421 -458 0
-421 -459 0
-421 -460 0
-421 -461 0
-421 -462 0
-421 -463 0
-421 -464 0
-421 -465 0
-421 -466 0
-421 -467 0
-421 -468 0
-421 -469 0
-421 -470 0
-421 -471 0
-421 -472 0
-421 -473 0
-421 -474 0
-421 -475 0
-421 -476 0
-421 -477 0
-421 -478 0
-421 -479 0
-421 -480 0
-421 -481 0
-421 -482 0
-421 -483 0
-421 -484 0
-421 -485 0
-421 -486 0
-421 -487 0
-421 -488 0
-421 -489 0
-421 -490 0
-421 -491 0
-421 -492 0
-421 -493 0
-421 -494 0
-421 -495 0
-421 -496 0
-421 -497 0
-421 -498 0
-421 -499 0
-421 -500 0
-421 -501 0
-421 -502 0
-421 -503 0
-421 -504 0
-421 -505 0
-421 -506 0
-421 -507 0
-421 -508 0
-421 -509 0
-421 -510 0
-421 -511 0
-421 -512 0
-422 -423 0
-422 -424 0
-422 -425 0
-422 -426 0
-422 -427 0
-422 -428 0
-422 -429 0
-422 -430 0
-422 -431 0
-422 -432 0
-422 -433 0
-422 -434 0
-422 -435 0
-422 -436 0
-422 -437 0
-422 -438 0
-422 -439 0
-422 -440 0
-422 -441 0
-422 -442 0
-422 -443 0
-422 -444 0
-422 -445 0
-422 -446 0
-422 -447 0
-422 -448 0
-422 -449 0
-422 -450 0
-422 -451 0
-422 -452 0
-422 -453 0
-422 -454 0
-422 -455 0
-422 -456 0
-422 -457 0
-422 -458 0
-422 -459 0
-422 -460 0
-422 -461 0
-422 -462 0
-422 -463 0
-422 -464 0
-422 -465 0
-422 -466 0
-422 -467 0
-422 -468 0
-422 -469 0
-422 -470 0
-422 -471 0
-422 -472 0
-422 -473 0
-422 -474 0
-422 -475 0
-422 -476 0
-422 -477 0
-422 -478 0
-422 -479 0
-422 -480 0
-422 -481 0
-422 -482 0
-422 -483 0
-422 -484 0
-422 -485 0
-422 -486 0
-422 -487 0
-422 -488 0
-422 -489 0
-422 -490 0
-422 -491 0
-422 -492 0
-422 -493 0
-422 -494 0
-422 -495 0
-422 -496 0
-422 -497 0
-422 -498 0
-422 -499 0
-422 -500 0
-422 -501 0
-422 -502 0
-422 -503 0
-422 -504 0
-422 -505 0
-422 -506 0
-422 -507 0
-422 -508 0
-422 -509 0
-422 -510 0
-422 -511 0
-422 -512 0
-423 -424 0
-423 -425 0
-423 -426 0
-423 -427 0
-423 -428 0
-423 -429 0
-423 -430 0
-423 -431 0
-423 -432 0
-423 -433 0
-423 -434 0
-423 -435 0
-423 -436 0
-423 -437 0
-423 -438 0
-423 -439 0
-423 -440 0
-423 -441 0
-423 -442 0
-423 -443 0
-423 -444 0
-423 -445 0
-423 -446 0
-423 -447 0
-423 -448 0
-423 -449 0
-423 -450 0
-423 -451 0
-423 -452 0
-423 -453 0
-423 -454 0
-423 -455 0
-423 -456 0
-423 -457 0
-423 -458 0
-423 -459 0
-423 -460 0
-423 -461 0
-423 -462 0
-423 -463 0
-423 -464 0
-423 -465 0
-423 -466 0
-423 -467 0
-423 -468 0
-423 -469 0
-423 -470 0
-423 -471 0
-423 -472 0
-423 -473 0
-423 -474 0
-423 -475 0
-423 -476 0
-423 -477 0
-423 -478 0
-423 -479 0
-423 -480 0
-423 -481 0
-423 -482 0
-423 -483 0
-423 -484 0
-423 -485 0
-423 -486 0
-423 -487 0
-423 -488 0
-423 -489 0
-423 -490 0
-423 -491 0
-423 -492 0
-423 -493 0
-423 -494 0
-423 -495 0
-423 -496 0
-423 -497 0
-423 -498 0
-423 -499 0
-423 -500 0
-423 -501 0
-423 -502 0
-423 -503 0
-423 -504 0
-423 -505 0
-423 -506 0
-423 -507 0
-423 -508 0
-423 -509 0
-423 -510 0
-423 -511 0
-423 -512 0
-424 -425 0
-424 -426 0
-424 -427 0
-424 -428 0
-424 -429 0
-424 -430 0
-424 -431 0
-424 -432 0
-424 -433 0
-424 -434 0
-424 -435 0
-424 -436 0
-424 -437 0
-424 -438 0
-424 -439 0
-424 -440 0
-424 -441 0
-424 -442 0
-424 -443 0
-424 -444 0
-424 -445 0
-424 -446 0
-424 -447 0
-424 -448 0
-424 -449 0
-424 -450 0
-424 -451 0
-424 -452 0
-424 -453 0
-424 -454 0
-424 -455 0
-424 -456 0
-424 -457 0
-424 -458 0
-424 -459 0
-424 -460 0
-424 -461 0
-424 -462 0
-424 -463 0
-424 -464 0
-424 -465 0
-424 -466 0
-424 -467 0
-424 -468 0
-424 -469 0
-424 -470 0
-424 -471 0
-424 -472 0
-424 -473 0
-424 -474 0
-424 -475 0
-424 -476 0
-424 -477 0
-424 -478 0
-424 -479 0
-424 -480 0
-424 -481 0
-424 -482 0
-424 -483 0
-424 -484 0
-424 -485 0
-424 -486 0
-424 -487 0
-424 -488 0
-424 -489 0
-424 -490 0
-424 -491 0
-424 -492 0
-424 -493 0
-424 -494 0
-424 -495 0
-424 -496 0
-424 -497 0
-424 -498 0
-424 -499 0
-424 -500 0
-424 -501 0
-424 -502 0
-424 -503 0
-424 -504 0
-424 -505 0
-424 -506 0
-424 -507 0
-424 -508 0
-424 -509 0
-424 -510 0
-424 -511 0
-424 -512 0
-425 -426 0
-425 -427 0
-425 -428 0
-425 -429 0
-425 -430 0
-425 -431 0
-425 -432 0
-425 -433 0
-425 -434 0
-425 -435 0
-425 -436 0
-425 -437 0
-425 -438 0
-425 -439 0
-425 -440 0
-425 -441 0
-425 -442 0
-425 -443 0
-425 -444 0
-425 -445 0
-425 -446 0
-425 -447 0
-425 -448 0
-425 -449 0
-425 -450 0
-425 -451 0
-425 -452 0
-425 -453 0
-425 -454 0
-425 -455 0
-425 -456 0
-425 -457 0
-425 -458 0
-425 -459 0
-425 -460 0
-425 -461 0
-425 -462 0
-425 -463 0
-425 -464 0
-425 -465 0
-425 -466 0
-425 -467 0
-425 -468 0
-425 -469 0
-425 -470 0
-425 -471 0
-425 -472 0
-425 -473 0
-425 -474 0
-425 -475 0
-425 -476 0
-425 -477 0
-425 -478 0
-425 -479 0
-425 -480 0
-425 -481 0
-425 -482 0
-425 -483 0
-425 -484 0
-425 -485 0
-425 -486 0
-425 -487 0
-425 -488 0
-425 -489 0
-425 -490 0
-425 -491 0
-425 -492 0
-425 -493 0
-425 -494 0
-425 -495 0
-425 -496 0
-425 -497 0
-425 -498 0
-425 -499 0
-425 -500 0
-425 -501 0
-425 -502 0
-425 -503 0
-425 -504 0
-425 -505 0
-425 -506 0
-425 -507 0
-425 -508 0
-425 -509 0
-425 -510 0
-425 -511 0
-425 -512 0
-426 -427 0
-426 -428 0
-426 -429 0
-426 -430 0
-426 -431 0
-426 -432 0
-426 -433 0
-426 -434 0
-426 -435 0
-426 -436 0
-426 -437 0
-426 -438 0
-426 -439 0
-426 -440 0
-426 -441 0
-426 -442 0
-426 -443 0
-426 -444 0
-426 -445 0
-426 -446 0
-426 -447 0
-426 -448 0
-426 -449 0
-426 -450 0
-426 -451 0
-426 -452 0
-426 -453 0
-426 -454 0
-426 -455 0
-426 -456 0
-426 -457 0
-426 -458 0
-426 -459 0
-426 -460 0
-426 -461 0
-426 -462 0
-426 -463 0
-426 -464 0
-426 -465 0
-426 -466 0
-426 -467 0
-426 -468 0
-426 -469 0
-426 -470 0
-426 -471 0
-426 -472 0
-426 -473 0
-426 -474 0
-426 -475 0
-426 -476 0
-426 -477 0
-426 -478 0
-426 -479 0
-426 -480 0
-426 -481 0
-426 -482 0
-426 -483 0
-426 -484 0
-426 -485 0
-426 -486 0
-426 -487 0
-426 -488 0
-426 -489 0
-426 -490 0
-426 -491 0
-426 -492 0
-426 -493 0
-426 -494 0
-426 -495 0
-426 -496 0
-426 -497 0
-426 -498 0
-426 -499 0
-426 -500 0
-426 -501 0
-426 -502 0
-426 -503 0
-426 -504 0
-426 -505 0
-426 -506 0
-426 -507 0
-426 -508 0
-426 -509 0
-426 -510 0
-426 -511 0
-426 -512 0
-427 -428 0
-427 -429 0
-427 -430 0
-427 -431 0
-427 -432 0
-427 -433 0
-427 -434 0
-427 -435 0
-427 -436 0
-427 -437 0
-427 -438 0
-427 -439 0
-427 -440 0
-427 -441 0
-427 -442 0
-427 -443 0
-427 -444 0
-427 -445 0
-427 -446 0
-427 -447 0
-427 -448 0
-427 -449 0
-427 -450 0
-427 -451 0
-427 -452 0
-427 -453 0
-427 -454 0
-427 -455 0
-427 -456 0
-427 -457 0
-427 -458 0
-427 -459 0
-427 -460 0
-427 -461 0
-427 -462 0
-427 -463 0
-427 -464 0
-427 -465 0
-427 -466 0
-427 -467 0
-427 -468 0
-427 -469 0
-427 -470 0
-427 -471 0
-427 -472 0
-427 -473 0
-427 -474 0
-427 -475 0
-427 -476 0
-427 -477 0
-427 -478 0
-427 -479 0
-427 -480 0
-427 -481 0
-427 -482 0
-427 -483 0
-427 -484 0
-427 -485 0
-427 -486 0
-427 -487 0
-427 -488 0
-427 -489 0
-427 -490 0
-427 -491 0
-427 -492 0
-427 -493 0
-427 -494 0
-427 -495 0
-427 -496 0
-427 -497 0
-427 -498 0
-427 -499 0
-427 -500 0
-427 -501 0
-427 -502 0
-427 -503 0
-427 -504 0
-427 -505 0
-427 -506 0
-427 -507 0
-427 -508 0
-427 -509 0
-427 -510 0
-427 -511 0
-427 -512 0
-428 -429 0
-428 -430 0
-428 -431 0
-428 -432 0
-428 -433 0
-428 -434 0
-428 -435 0
-428 -436 0
-428 -437 0
-428 -438 0
-428 -439 0
-428 -440 0
-428 -441 0
-428 -442 0
-428 -443 0
-428 -444 0
-428 -445 0
-428 -446 0
-428 -447 0
-428 -448 0
-428 -449 0
-428 -450 0
-428 -451 0
-428 -452 0
-428 -453 0
-428 -454 0
-428 -455 0
-428 -456 0
-428 -457 0
-428 -458 0
-428 -459 0
-428 -460 0
-428 -461 0
-428 -462 0
-428 -463 0
-428 -464 0
-428 -465 0
-428 -466 0
-428 -467 0
-428 -468 0
-428 -469 0
-428 -470 0
-428 -471 0
-428 -472 0
-428 -473 0
-428 -474 0
-428 -475 0
-428 -476 0
-428 -477 0
-428 -478 0
-428 -479 0
-428 -480 0
-428 -481 0
-428 -482 0
-428 -483 0
-428 -484 0
-428 -485 0
-428 -486 0
-428 -487 0
-428 -488 0
-428 -489 0
-428 -490 0
-428 -491 0
-428 -492 0
-428 -493 0
-428 -494 0
-428 -495 0
-428 -496 0
-428 -497 0
-428 -498 0
-428 -499 0
-428 -500 0
-428 -501 0
-428 -502 0
-428 -503 0
-428 -504 0
-428 -505 0
-428 -506 0
-428 -507 0
-428 -508 0
-428 -509 0
-428 -510 0
-428 -511 0
-428 -512 0
-429 -430 0
-429 -431 0
-429 -432 0
-429 -433 0
-429 -434 0
-429 -435 0
-429 -436 0
-429 -437 0
-429 -438 0
-429 -439 0
-429 -440 0
-429 -441 0
-429 -442 0
-429 -443 0
-429 -444 0
-429 -445 0
-429 -446 0
-429 -447 0
-429 -448 0
-429 -449 0
-429 -450 0
-429 -451 0
-429 -452 0
-429 -453 0
-429 -454 0
-429 -455 0
-429 -456 0
-429 -457 0
-429 -458 0
-429 -459 0
-429 -460 0
-429 -461 0
-429 -462 0
-429 -463 0
-429 -464 0
-429 -465 0
-429 -466 0
-429 -467 0
-429 -468 0
-429 -469 0
-429 -470 0
-429 -471 0
-429 -472 0
-429 -473 0
-429 -474 0
-429 -475 0
-429 -476 0
-429 -477 0
-429 -478 0
-429 -479 0
-429 -480 0
-429 -481 0
-429 -482 0
-429 -483 0
-429 -484 0
-429 -485 0
-429 -486 0
-429 -487 0
-429 -488 0
-429 -489 0
-429 -490 0
-429 -491 0
-429 -492 0
-429 -493 0
-429 -494 0
-429 -495 0
-429 -496 0
-429 -497 0
-429 -498 0
-429 -499 0
-429 -500 0
-429 -501 0
-429 -502 0
-429 -503 0
-429 -504 0
-429 -505 0
-429 -506 0
-429 -507 0
-429 -508 0
-429 -509 0
-429 -510 0
-429 -511 0
-429 -512 0
-430 -431 0
-430 -432 0
-430 -433 0
-430 -434 0
-430 -435 0
-430 -436 0
-430 -437 0
-430 -438 0
-430 -439 0
-430 -440 0
-430 -441 0
-430 -442 0
-430 -443 0
-430 -444 0
-430 -445 0
-430 -446 0
-430 -447 0
-430 -448 0
-430 -449 0
-430 -450 0
-430 -451 0
-430 -452 0
-430 -453 0
-430 -454 0
-430 -455 0
-430 -456 0
-430 -457 0
-430 -458 0
-430 -459 0
-430 -460 0
-430 -461 0
-430 -462 0
-430 -463 0
-430 -464 0
-430 -465 0
-430 -466 0
-430 -467 0
-430 -468 0
-430 -469 0
-430 -470 0
-430 -471 0
-430 -472 0
-430 -473 0
-430 -474 0
-430 -475 0
-430 -476 0
-430 -477 0
-430 -478 0
-430 -479 0
-430 -480 0
-430 -481 0
-430 -482 0
-430 -483 0
-430 -484 0
-430 -485 0
-430 -486 0
-430 -487 0
-430 -488 0
-430 -489 0
-430 -490 0
-430 -491 0
-430 -492 0
-430 -493 0
-430 -494 0
-430 -495 0
-430 -496 0
-430 -497 0
-430 -498 0
-430 -499 0
-430 -500 0
-430 -501 0
-430 -502 0
-430 -503 0
-430 -504 0
-430 -505 0
-430 -506 0
-430 -507 0
-430 -508 0
-430 -509 0
-430 -510 0
-430 -511 0
-430 -512 0
-431 -432 0
-431 -433 0
-431 -434 0
-431 -435 0
-431 -436 0
-431 -437 0
-431 -438 0
-431 -439 0
-431 -440 0
-431 -441 0
-431 -442 0
-431 -443 0
-431 -444 0
-431 -445 0
-431 -446 0
-431 -447 0
-431 -448 0
-431 -449 0
-431 -450 0
-431 -451 0
-431 -452 0
-431 -453 0
-431 -454 0
-431 -455 0
-431 -456 0
-431 -457 0
-431 -458 0
-431 -459 0
-431 -460 0
-431 -461 0
-431 -462 0
-431 -463 0
-431 -464 0
-431 -465 0
-431 -466 0
-431 -467 0
-431 -468 0
-431 -469 0
-431 -470 0
-431 -471 0
-431 -472 0
-431 -473 0
-431 -474 0
-431 -475 0
-431 -476 0
-431 -477 0
-431 -478 0
-431 -479 0
-431 -480 0
-431 -481 0
-431 -482 0
-431 -483 0
-431 -484 0
-431 -485 0
-431 -486 0
-431 -487 0
-431 -488 0
-431 -489 0
-431 -490 0
-431 -491 0
-431 -492 0
-431 -493 0
-431 -494 0
-431 -495 0
-431 -496 0
-431 -497 0
-431 -498 0
-431 -499 0
-431 -500 0
-431 -501 0
-431 -502 0
-431 -503 0
-431 -504 0
-431 -505 0
-431 -506 0
-431 -507 0
-431 -508 0
-431 -509 0
-431 -510 0
-431 -511 0
-431 -512 0
-432 -433 0
-432 -434 0
-432 -435 0
-432 -436 0
-432 -437 0
-432 -438 0
-432 -439 0
-432 -440 0
-432 -441 0
-432 -442 0
-432 -443 0
-432 -444 0
-432 -445 0
-432 -446 0
-432 -447 0
-432 -448 0
-432 -449 0
-432 -450 0
-432 -451 0
-432 -452 0
-432 -453 0
-432 -454 0
-432 -455 0
-432 -456 0
-432 -457 0
-432 -458 0
-432 -459 0
-432 -460 0
-432 -461 0
-432 -462 0
-432 -463 0
-432 -464 0
-432 -465 0
-432 -466 0
-432 -467 0
-432 -468 0
-432 -469 0
-432 -470 0
-432 -471 0
-432 -472 0
-432 -473 0
-432 -474 0
-432 -475 0
-432 -476 0
-432 -477 0
-432 -478 0
-432 -479 0
-432 -480 0
-432 -481 0
-432 -482 0
-432 -483 0
-432 -484 0
-432 -485 0
-432 -486 0
-432 -487 0
-432 -488 0
-432 -489 0
-432 -490 0
-432 -491 0
-432 -492 0
-432 -493 0
-432 -494 0
-432 -495 0
-432 -496 0
-432 -497 0
-432 -498 0
-432 -499 0
-432 -500 0
-432 -501 0
-432 -502 0
-432 -503 0
-432 -504 0
-432 -505 0
-432 -506 0
-432 -507 0
-432 -508 0
-432 -509 0
-432 -510 0
-432 -511 0
-432 -512 0
-433 -434 0
-433 -435 0
-433 -436 0
-433 -437 0
-433 -438 0
-433 -439 0
-433 -440 0
-433 -441 0
-433 -442 0
-433 -443 0
-433 -444 0
-433 -445 0
-433 -446 0
-433 -447 0
-433 -448 0
-433 -449 0
-433 -450 0
-433 -451 0
-433 -452 0
-433 -453 0
-433 -454 0
-433 -455 0
-433 -456 0
-433 -457 0
-433 -458 0
-433 -459 0
-433 -460 0
-433 -461 0
-433 -462 0
-433 -463 0
-433 -464 0
-433 -465 0
-433 -466 0
-433 -467 0
-433 -468 0
-433 -469 0
-433 -470 0
-433 -471 0
-433 -472 0
-433 -473 0
-433 -474 0
-433 -475 0
-433 -476 0
-433 -477 0
-433 -478 0
-433 -479 0
-433 -480 0
-433 -481 0
-433 -482 0
-433 -483 0
-433 -484 0
-433 -485 0
-433 -486 0
-433 -487 0
-433 -488 0
-433 -489 0
-433 -490 0
-433 -491 0
-433 -492 0
-433 -493 0
-433 -494 0
-433 -495 0
-433 -496 0
-433 -497 0
-433 -498 0
-433 -499 0
-433 -500 0
-433 -501 0
-433 -502 0
-433 -503 0
-433 -504 0
-433 -505 0
-433 -506 0
-433 -507 0
-433 -508 0
-433 -509 0
-433 -510 0
-433 -511 0
-433 -512 0
-434 -435 0
-434 -436 0
-434 -437 0
-434 -438 0
-434 -439 0
-434 -440 0
-434 -441 0
-434 -442 0
-434 -443 0
-434 -444 0
-434 -445 0
-434 -446 0
-434 -447 0
-434 -448 0
-434 -449 0
-434 -450 0
-434 -451 0
-434 -452 0
-434 -453 0
-434 -454 0
-434 -455 0
-434 -456 0
-434 -457 0
-434 -458 0
-434 -459 0
-434 -460 0
-434 -461 0
-434 -462 0
-434 -463 0
-434 -464 0
-434 -465 0
-434 -466 0
-434 -467 0
-434 -468 0
-434 -469 0
-434 -470 0
-434 -471 0
-434 -472 0
-434 -473 0
-434 -474 0
-434 -475 0
-434 -476 0
-434 -477 0
-434 -478 0
-434 -479 0
-434 -480 0
-434 -481 0
-434 -482 0
-434 -483 0
-434 -484 0
-434 -485 0
-434 -486 0
-434 -487 0
-434 -488 0
-434 -489 0
-434 -490 0
-434 -491 0
-434 -492 0
-434 -493 0
-434 -494 0
-434 -495 0
-434 -496 0
-434 -497 0
-434 -498 0
-434 -499 0
-434 -500 0
-434 -501 0
-434 -502 0
-434 -503 0
-434 -504 0
-434 -505 0
-434 -506 0
-434 -507 0
-434 -508 0
-434 -509 0
-434 -510 0
-434 -511 0
-434 -512 0
-435 -436 0
-435 -437 0
-435 -438 0
-435 -439 0
-435 -440 0
-435 -441 0
-435 -442 0
-435 -443 0
-435 -444 0
-435 -445 0
-435 -446 0
-435 -447 0
-435 -448 0
-435 -449 0
-435 -450 0
-435 -451 0
-435 -452 0
-435 -453 0
-435 -454 0
-435 -455 0
-435 -456 0
-435 -457 0
-435 -458 0
-435 -459 0
-435 -460 0
-435 -461 0
-435 -462 0
-435 -463 0
-435 -464 0
-435 -465 0
-435 -466 0
-435 -467 0
-435 -468 0
-435 -469 0
-435 -470 0
-435 -471 0
-435 -472 0
-435 -473 0
-435 -474 0
-435 -475 0
-435 -476 0
-435 -477 0
-435 -478 0
-435 -479 0
-435 -480 0
-435 -481 0
-435 -482 0
-435 -483 0
-435 -484 0
-435 -485 0
-435 -486 0
-435 -487 0
-435 -488 0
-435 -489 0
-435 -490 0
-435 -491 0
-435 -492 0
-435 -493 0
-435 -494 0
-435 -495 0
-435 -496 0
-435 -497 0
-435 -498 0
-435 -499 0
-435 -500 0
-435 -501 0
-435 -502 0
-435 -503 0
-435 -504 0
-435 -505 0
-435 -506 0
-435 -507 0
-435 -508 0
-435 -509 0
-435 -510 0
-435 -511 0
-435 -512 0
-436 -437 0
-436 -438 0
-436 -439 0
-436 -440 0
-436 -441 0
-436 -442 0
-436 -443 0
-436 -444 0
-436 -445 0
-436 -446 0
-436 -447 0
-436 -448 0
-436 -449 0
-436 -450 0
-436 -451 0
-436 -452 0
-436 -453 0
-436 -454 0
-436 -455 0
-436 -456 0
-436 -457 0
-436 -458 0
-436 -459 0
-436 -460 0
-436 -461 0
-436 -462 0
-436 -463 0
-436 -464 0
-436 -465 0
-436 -466 0
-436 -467 0
-436 -468 0
-436 -469 0
-436 -470 0
-436 -471 0
-436 -472 0
-436 -473 0
-436 -474 0
-436 -475 0
-436 -476 0
-436 -477 0
-436 -478 0
-436 -479 0
-436 -480 0
-436 -481 0
-436 -482 0
-436 -483 0
-436 -484 0
-436 -485 0
-436 -486 0
-436 -487 0
-436 -488 0
-436 -489 0
-436 -490 0
-436 -491 0
-436 -492 0
-436 -493 0
-436 -494 0
-436 -495 0
-436 -496 0
-436 -497 0
-436 -498 0
-436 -499 0
-436 -500 0
-436 -501 0
-436 -502 0
-436 -503 0
-436 -504 0
-436 -505 0
-436 -506 0
-436 -507 0
-436 -508 0
-436 -509 0
-436 -510 0
-436 -511 0
-436 -512 0
-437 -438 0
-437 -439 0
-437 -440 0
-437 -441 0
-437 -442 0
-437 -443 0
-437 -444 0
-437 -445 0
-437 -446 0
-437 -447 0
-437 -448 0
-437 -449 0
-437 -450 0
-437 -451 0
-437 -452 0
-437 -453 0
-437 -454 0
-437 -455 0
-437 -456 0
-437 -457 0
-437 -458 0
-437 -459 0
-437 -460 0
-437 -461 0
-437 -462 0
-437 -463 0
-437 -464 0
-437 -465 0
-437 -466 0
-437 -467 0
-437 -468 0
-437 -469 0
-437 -470 0
-437 -471 0
-437 -472 0
-437 -473 0
-437 -474 0
-437 -475 0
-437 -476 0
-437 -477 0
-437 -478 0
-437 -479 0
-437 -480 0
-437 -481 0
-437 -482 0
-437 -483 0
-437 -484 0
-437 -485 0
-437 -486 0
-437 -487 0
-437 -488 0
-437 -489 0
-437 -490 0
-437 -491 0
-437 -492 0
-437 -493 0
-437 -494 0
-437 -495 0
-437 -496 0
-437 -497 0
-437 -498 0
-437 -499 0
-437 -500 0
-437 -501 0
-437 -502 0
-437 -503 0
-437 -504 0
-437 -505 0
-437 -506 0
-437 -507 0
-437 -508 0
-437 -509 0
-437 -510 0
-437 -511 0
-437 -512 0
-438 -439 0
-438 -440 0
-438 -441 0
-438 -442 0
-438 -443 0
-438 -444 0
-438 -445 0
-438 -446 0
-438 -447 0
-438 -448 0
-438 -449 0
-438 -450 0
-438 -451 0
-438 -452 0
-438 -453 0
-438 -454 0
-438 -455 0
-438 -456 0
-438 -457 0
-438 -458 0
-438 -459 0
-438 -460 0
-438 -461 0
-438 -462 0
-438 -463 0
-438 -464 0
-438 -465 0
-438 -466 0
-438 -467 0
-438 -468 0
-438 -469 0
-438 -470 0
-438 -471 0
-438 -472 0
-438 -473 0
-438 -474 0
-438 -475 0
-438 -476 0
-438 -477 0
-438 -478 0
-438 -479 0
-438 -480 0
-438 -481 0
-438 -482 0
-438 -483 0
-438 -484 0
-438 -485 0
-438 -486 0
-438 -487 0
-438 -488 0
-438 -489 0
-438 -490 0
-438 -491 0
-438 -492 0
-438 -493 0
-438 -494 0
-438 -495 0
-438 -496 0
-438 -497 0
-438 -498 0
-438 -499 0
-438 -500 0
-438 -501 0
-438 -502 0
-438 -503 0
-438 -504 0
-438 -505 0
-438 -506 0
-438 -507 0
-438 -508 0
-438 -509 0
-438 -510 0
-438 -511 0
-438 -512 0
-439 -440 0
-439 -441 0
-439 -442 0
-439 -443 0
-439 -444 0
-439 -445 0
-439 -446 0
-439 -447 0
-439 -448 0
-439 -449 0
-439 -450 0
-439 -451 0
-439 -452 0
-439 -453 0
-439 -454 0
-439 -455 0
-439 -456 0
-439 -457 0
-439 -458 0
-439 -459 0
-439 -460 0
-439 -461 0
-439 -462 0
-439 -463 0
-439 -464 0
-439 -465 0
-439 -466 0
-439 -467 0
-439 -468 0
-439 -469 0
-439 -470 0
-439 -471 0
-439 -472 0
-439 -473 0
-439 -474 0
-439 -475 0
-439 -476 0
-439 -477 0
-439 -478 0
-439 -479 0
-439 -480 0
-439 -481 0
-439 -482 0
-439 -483 0
-439 -484 0
-439 -485 0
-439 -486 0
-439 -487 0
-439 -488 0
-439 -489 0
-439 -490 0
-439 -491 0
-439 -492 0
-439 -493 0
-439 -494 0
-439 -495 0
-439 -496 0
-439 -497 0
-439 -498 0
-439 -499 0
-439 -500 0
-439 -501 0
-439 -502 0
-439 -503 0
-439 -504 0
-439 -505 0
-439 -506 0
-439 -507 0
-439 -508 0
-439 -509 0
-439 -510 0
-439 -511 0
-439 -512 0
-440 -441 0
-440 -442 0
-440 -443 0
-440 -444 0
-440 -445 0
-440 -446 0
-440 -447 0
-440 -448 0
-440 -449 0
-440 -450 0
-440 -451 0
-440 -452 0
-440 -453 0
-440 -454 0
-440 -455 0
-440 -456 0
-440 -457 0
-440 -458 0
-440 -459 0
-440 -460 0
-440 -461 0
-440 -462 0
-440 -463 0
-440 -464 0
-440 -465 0
-440 -466 0
-440 -467 0
-440 -468 0
-440 -469 0
-440 -470 0
-440 -471 0
-440 -472 0
-440 -473 0
-440 -474 0
-440 -475 0
-440 -476 0
-440 -477 0
-440 -478 0
-440 -479 0
-440 -480 0
-440 -481 0
-440 -482 0
-440 -483 0
-440 -484 0
-440 -485 0
-440 -486 0
-440 -487 0
-440 -488 0
-440 -489 0
-440 -490 0
-440 -491 0
-440 -492 0
-440 -493 0
-440 -494 0
-440 -495 0
-440 -496 0
-440 -497 0
-440 -498 0
-440 -499 0
-440 -500 0
-440 -501 0
-440 -502 0
-440 -503 0
-440 -504 0
-440 -505 0
-440 -506 0
-440 -507 0
-440 -508 0
-440 -509 0
-440 -510 0
-440 -511 0
-440 -512 0
-441 -442 0
-441 -443 0
-441 -444 0
-441 -445 0
-441 -446 0
-441 -447 0
-441 -448 0
-441 -449 0
-441 -450 0
-441 -451 0
-441 -452 0
-441 -453 0
-441 -454 0
-441 -455 0
-441 -456 0
-441 -457 0
-441 -458 0
-441 -459 0
-441 -460 0
-441 -461 0
-441 -462 0
-441 -463 0
-441 -464 0
-441 -465 0
-441 -466 0
-441 -467 0
-441 -468 0
-441 -469 0
-441 -470 0
-441 -471 0
-441 -472 0
-441 -473 0
-441 -474 0
-441 -475 0
-441 -476 0
-441 -477 0
-441 -478 0
-441 -479 0
-441 -480 0
-441 -481 0
-441 -482 0
-441 -483 0
-441 -484 0
-441 -485 0
-441 -486 0
-441 -487 0
-441 -488 0
-441 -489 0
-441 -490 0
-441 -491 0
-441 -492 0
-441 -493 0
-441 -494 0
-441 -495 0
-441 -496 0
-441 -497 0
-441 -498 0
-441 -499 0
-441 -500 0
-441 -501 0
-441 -502 0
-441 -503 0
-441 -504 0
-441 -505 0
-441 -506 0
-441 -507 0
-441 -508 0
-441 -509 0
-441 -510 0
-441 -511 0
-441 -512 0
-442 -443 0
-442 -444 0
-442 -445 0
-442 -446 0
-442 -447 0
-442 -448 0
-442 -449 0
-442 -450 0
-442 -451 0
-442 -452 0
-442 -453 0
-442 -454 0
-442 -455 0
-442 -456 0
-442 -457 0
-442 -458 0
-442 -459 0
-442 -460 0
-442 -461 0
-442 -462 0
-442 -463 0
-442 -464 0
-442 -465 0
-442 -466 0
-442 -467 0
-442 -468 0
-442 -469 0
-442 -470 0
-442 -471 0
-442 -472 0
-442 -473 0
-442 -474 0
-442 -475 0
-442 -476 0
-442 -477 0
-442 -478 0
-442 -479 0
-442 -480 0
-442 -481 0
-442 -482 0
-442 -483 0
-442 -484 0
-442 -485 0
-442 -486 0
-442 -487 0
-442 -488 0
-442 -489 0
-442 -490 0
-442 -491 0
-442 -492 0
-442 -493 0
-442 -494 0
-442 -495 0
-442 -496 0
-442 -497 0
-442 -498 0
-442 -499 0
-442 -500 0
-442 -501 0
-442 -502 0
-442 -503 0
-442 -504 0
-442 -505 0
-442 -506 0
-442 -507 0
-442 -508 0
-442 -509 0
-442 -510 0
-442 -511 0
-442 -512 0
-443 -444 0
-443 -445 0
-443 -446 0
-443 -447 0
-443 -448 0
-443 -449 0
-443 -450 0
-443 -451 0
-443 -452 0
-443 -453 0
-443 -454 0
-443 -455 0
-443 -456 0
-443 -457 0
-443 -458 0
-443 -459 0
-443 -460 0
-443 -461 0
-443 -462 0
-443 -463 0
-443 -464 0
-443 -465 0
-443 -466 0
-443 -467 0
-443 -468 0
-443 -469 0
-443 -470 0
-443 -471 0
-443 -472 0
-443 -473 0
-443 -474 0
-443 -475 0
-443 -476 0
-443 -477 0
-443 -478 0
-443 -479 0
-443 -480 0
-443 -481 0
-443 -482 0
-443 -483 0
-443 -484 0
-443 -485 0
-443 -486 0
-443 -487 0
-443 -488 0
-443 -489 0
-443 -490 0
-443 -491 0
-443 -492 0
-443 -493 0
-443 -494 0
-443 -495 0
-443 -496 0
-443 -497 0
-443 -498 0
-443 -499 0
-443 -500 0
-443 -501 0
-443 -502 0
-443 -503 0
-443 -504 0
-443 -505 0
-443 -506 0
-443 -507 0
-443 -508 0
-443 -509 0
-443 -510 0
-443 -511 0
-443 -512 0
-444 -445 0
-444 -446 0
-444 -447 0
-444 -448 0
-444 -449 0
-444 -450 0
-444 -451 0
-444 -452 0
-444 -453 0
-444 -454 0
-444 -455 0
-444 -456 0
-444 -457 0
-444 -458 0
-444 -459 0
-444 -460 0
-444 -461 0
-444 -462 0
-444 -463 0
-444 -464 0
-444 -465 0
-444 -466 0
-444 -467 0
-444 -468 0
-444 -469 0
-444 -470 0
-444 -471 0
-444 -472 0
-444 -473 0
-444 -474 0
-444 -475 0
-444 -476 0
-444 -477 0
-444 -478 0
-444 -479 0
-444 -480 0
-444 -481 0
-444 -482 0
-444 -483 0
-444 -484 0
-444 -485 0
-444 -486 0
-444 -487 0
-444 -488 0
-444 -489 0
-444 -490 0
-444 -491 0
-444 -492 0
-444 -493 0
-444 -494 0
-444 -495 0
-444 -496 0
-444 -497 0
-444 -498 0
-444 -499 0
-444 -500 0
-444 -501 0
-444 -502 0
-444 -503 0
-444 -504 0
-444 -505 0
-444 -506 0
-444 -507 0
-444 -508 0
-444 -509 0
-444 -510 0
-444 -511 0
-444 -512 0
-445 -446 0
-445 -447 0
-445 -448 0
-445 -449 0
-445 -450 0
-445 -451 0
-445 -452 0
-445 -453 0
-445 -454 0
-445 -455 0
-445 -456 0
-445 -457 0
-445 -458 0
-445 -459 0
-445 -460 0
-445 -461 0
-445 -462 0
-445 -463 0
-445 -464 0
-445 -465 0
-445 -466 0
-445 -467 0
-445 -468 0
-445 -469 0
-445 -470 0
-445 -471 0
-445 -472 0
-445 -473 0
-445 -474 0
-445 -475 0
-445 -476 0
-445 -477 0
-445 -478 0
-445 -479 0
-445 -480 0
-445 -481 0
-445 -482 0
-445 -483 0
-445 -484 0
-445 -485 0
-445 -486 0
-445 -487 0
-445 -488 0
-445 -489 0
-445 -490 0
-445 -491 0
-445 -492 0
-445 -493 0
-445 -494 0
-445 -495 0
-445 -496 0
-445 -497 0
-445 -498 0
-445 -499 0
-445 -500 0
-445 -501 0
-445 -502 0
-445 -503 0
-445 -504 0
-445 -505 0
-445 -506 0
-445 -507 0
-445 -508 0
-445 -509 0
-445 -510 0
-445 -511 0
-445 -512 0
-446 -447 0
-446 -448 0
-446 -449 0
-446 -450 0
-446 -451 0
-446 -452 0
-446 -453 0
-446 -454 0
-446 -455 0
-446 -456 0
-446 -457 0
-446 -458 0
-446 -459 0
-446 -460 0
-446 -461 0
-446 -462 0
-446 -463 0
-446 -464 0
-446 -465 0
-446 -466 0
-446 -467 0
-446 -468 0
-446 -469 0
-446 -470 0
-446 -471 0
-446 -472 0
-446 -473 0
-446 -474 0
-446 -475 0
-446 -476 0
-446 -477 0
-446 -478 0
-446 -479 0
-446 -480 0
-446 -481 0
-446 -482 0
-446 -483 0
-446 -484 0
-446 -485 0
-446 -486 0
-446 -487 0
-446 -488 0
-446 -489 0
-446 -490 0
-446 -491 0
-446 -492 0
-446 -493 0
-446 -494 0
-446 -495 0
-446 -496 0
-446 -497 0
-446 -498 0
-446 -499 0
-446 -500 0
-446 -501 0
-446 -502 0
-446 -503 0
-446 -504 0
-446 -505 0
-446 -506 0
-446 -507 0
-446 -508 0
-446 -509 0
-446 -510 0
-446 -511 0
-446 -512 0
-447 -448 0
-447 -449 0
-447 -450 0
-447 -451 0
-447 -452 0
-447 -453 0
-447 -454 0
-447 -455 0
-447 -456 0
-447 -457 0
-447 -458 0
-447 -459 0
-447 -460 0
-447 -461 0
-447 -462 0
-447 -463 0
-447 -464 0
-447 -465 0
-447 -466 0
-447 -467 0
-447 -468 0
-447 -469 0
-447 -470 0
-447 -471 0
-447 -472 0
-447 -473 0
-447 -474 0
-447 -475 0
-447 -476 0
-447 -477 0
-447 -478 0
-447 -479 0
-447 -480 0
-447 -481 0
-447 -482 0
-447 -483 0
-447 -484 0
-447 -485 0
-447 -486 0
-447 -487 0
-447 -488 0
-447 -489 0
-447 -490 0
-447 -491 0
-447 -492 0
-447 -493 0
-447 -494 0
-447 -495 0
-447 -496 0
-447 -497 0
-447 -498 0
-447 -499 0
-447 -500 0
-447 -501 0
-447 -502 0
-447 -503 0
-447 -504 0
-447 -505 0
-447 -506 0
-447 -507 0
-447 -508 0
-447 -509 0
-447 -510 0
-447 -511 0
-447 -512 0
-448 -449 0
-448 -450 0
-448 -451 0
-448 -452 0
-448 -453 0
-448 -454 0
-448 -455 0
-448 -456 0
-448 -457 0
-448 -458 0
-448 -459 0
-448 -460 0
-448 -461 0
-448 -462 0
-448 -463 0
-448 -464 0
-448 -465 0
-448 -466 0
-448 -467 0
-448 -468 0
-448 -469 0
-448 -470 0
-448 -471 0
-448 -472 0
-448 -473 0
-448 -474 0
-448 -475 0
-448 -476 0
-448 -477 0
-448 -478 0
-448 -479 0
-448 -480 0
-448 -481 0
-448 -482 0
-448 -483 0
-448 -484 0
-448 -485 0
-448 -486 0
-448 -487 0
-448 -488 0
-448 -489 0
-448 -490 0
-448 -491 0
-448 -492 0
-448 -493 0
-448 -494 0
-448 -495 0
-448 -496 0
-448 -497 0
-448 -498 0
-448 -499 0
-448 -500 0
-448 -501 0
-448 -502 0
-448 -503 0
-448 -504 0
-448 -505 0
-448 -506 0
-448 -507 0
-448 -508 0
-448 -509 0
-448 -510 0
-448 -511 0
-448 -512 0
-449 -450 0
-449 -451 0
-449 -452 0
-449 -453 0
-449 -454 0
-449 -455 0
-449 -456 0
-449 -457 0
-449 -458 0
-449 -459 0
-449 -460 0
-449 -461 0
-449 -462 0
-449 -463 0
-449 -464 0
-449 -465 0
-449 -466 0
-449 -467 0
-449 -468 0
-449 -469 0
-449 -470 0
-449 -471 0
-449 -472 0
-449 -473 0
-449 -474 0
-449 -475 0
-449 -476 0
-449 -477 0
-449 -478 0
-449 -479 0
-449 -480 0
-449 -481 0
-449 -482 0
-449 -483 0
-449 -484 0
-449 -485 0
-449 -486 0
-449 -487 0
-449 -488 0
-449 -489 0
-449 -490 0
-449 -491 0
-449 -492 0
-449 -493 0
-449 -494 0
-449 -495 0
-449 -496 0
-449 -497 0
-449 -498 0
-449 -499 0
-449 -500 0
-449 -501 0
-449 -502 0
-449 -503 0
-449 -504 0
-449 -505 0
-449 -506 0
-449 -507 0
-449 -508 0
-449 -509 0
-449 -510 0
-449 -511 0
-449 -512 0
-450 -451 0
-450 -452 0
-450 -453 0
-450 -454 0
-450 -455 0
-450 -456 0
-450 -457 0
-450 -458 0
-450 -459 0
-450 -460 0
-450 -461 0
-450 -462 0
-450 -463 0
-450 -464 0
-450 -465 0
-450 -466 0
-450 -467 0
-450 -468 0
-450 -469 0
-450 -470 0
-450 -471 0
-450 -472 0
-450 -473 0
-450 -474 0
-450 -475 0
-450 -476 0
-450 -477 0
-450 -478 0
-450 -479 0
-450 -480 0
-450 -481 0
-450 -482 0
-450 -483 0
-450 -484 0
-450 -485 0
-450 -486 0
-450 -487 0
-450 -488 0
-450 -489 0
-450 -490 0
-450 -491 0
-450 -492 0
-450 -493 0
-450 -494 0
-450 -495 0
-450 -496 0
-450 -497 0
-450 -498 0
-450 -499 0
-450 -500 0
-450 -501 0
-450 -502 0
-450 -503 0
-450 -504 0
-450 -505 0
-450 -506 0
-450 -507 0
-450 -508 0
-450 -509 0
-450 -510 0
-450 -511 0
-450 -512 0
-451 -452 0
-451 -453 0
-451 -454 0
-451 -455 0
-451 -456 0
-451 -457 0
-451 -458 0
-451 -459 0
-451 -460 0
-451 -461 0
-451 -462 0
-451 -463 0
-451 -464 0
-451 -465 0
-451 -466 0
-451 -467 0
-451 -468 0
-451 -469 0
-451 -470 0
-451 -471 0
-451 -472 0
-451 -473 0
-451 -474 0
-451 -475 0
-451 -476 0
-451 -477 0
-451 -478 0
-451 -479 0
-451 -480 0
-451 -481 0
-451 -482 0
-451 -483 0
-451 -484 0
-451 -485 0
-451 -486 0
-451 -487 0
-451 -488 0
-451 -489 0
-451 -490 0
-451 -491 0
-451 -492 0
-451 -493 0
-451 -494 0
-451 -495 0
-451 -496 0
-451 -497 0
-451 -498 0
-451 -499 0
-451 -500 0
-451 -501 0
-451 -502 0
-451 -503 0
-451 -504 0
-451 -505 0
-451 -506 0
-451 -507 0
-451 -508 0
-451 -509 0
-451 -510 0
-451 -511 0
-451 -512 0
-452 -453 0
-452 -454 0
-452 -455 0
-452 -456 0
-452 -457 0
-452 -458 0
-452 -459 0
-452 -460 0
-452 -461 0
-452 -462 0
-452 -463 0
-452 -464 0
-452 -465 0
-452 -466 0
-452 -467 0
-452 -468 0
-452 -469 0
-452 -470 0
-452 -471 0
-452 -472 0
-452 -473 0
-452 -474 0
-452 -475 0
-452 -476 0
-452 -477 0
-452 -478 0
-452 -479 0
-452 -480 0
-452 -481 0
-452 -482 0
-452 -483 0
-452 -484 0
-452 -485 0
-452 -486 0
-452 -487 0
-452 -488 0
-452 -489 0
-452 -490 0
-452 -491 0
-452 -492 0
-452 -493 0
-452 -494 0
-452 -495 0
-452 -496 0
-452 -497 0
-452 -498 0
-452 -499 0
-452 -500 0
-452 -501 0
-452 -502 0
-452 -503 0
-452 -504 0
-452 -505 0
-452 -506 0
-452 -507 0
-452 -508 0
-452 -509 0
-452 -510 0
-452 -511 0
-452 -512 0
-453 -454 0
-453 -455 0
-453 -456 0
-453 -457 0
-453 -458 0
-453 -459 0
-453 -460 0
-453 -461 0
-453 -462 0
-453 -463 0
-453 -464 0
-453 -465 0
-453 -466 0
-453 -467 0
-453 -468 0
-453 -469 0
-453 -470 0
-453 -471 0
-453 -472 0
-453 -473 0
-453 -474 0
-453 -475 0
-453 -476 0
-453 -477 0
-453 -478 0
-453 -479 0
-453 -480 0
-453 -481 0
-453 -482 0
-453 -483 0
-453 -484 0
-453 -485 0
-453 -486 0
-453 -487 0
-453 -488 0
-453 -489 0
-453 -490 0
-453 -491 0
-453 -492 0
-453 -493 0
-453 -494 0
-453 -495 0
-453 -496 0
-453 -497 0
-453 -498 0
-453 -499 0
-453 -500 0
-453 -501 0
-453 -502 0
-453 -503 0
-453 -504 0
-453 -505 0
-453 -506 0
-453 -507 0
-453 -508 0
-453 -509 0
-453 -510 0
-453 -511 0
-453 -512 0
-454 -455 0
-454 -456 0
-454 -457 0
-454 -458 0
-454 -459 0
-454 -460 0
-454 -461 0
-454 -462 0
-454 -463 0
-454 -464 0
-454 -465 0
-454 -466 0
-454 -467 0
-454 -468 0
-454 -469 0
-454 -470 0
-454 -471 0
-454 -472 0
-454 -473 0
-454 -474 0
-454 -475 0
-454 -476 0
-454 -477 0
-454 -478 0
-454 -479 0
-454 -480 0
-454 -481 0
-454 -482 0
-454 -483 0
-454 -484 0
-454 -485 0
-454 -486 0
-454 -487 0
-454 -488 0
-454 -489 0
-454 -490 0
-454 -491 0
-454 -492 0
-454 -493 0
-454 -494 0
-454 -495 0
-454 -496 0
-454 -497 0
-454 -498 0
-454 -499 0
-454 -500 0
-454 -501 0
-454 -502 0
-454 -503 0
-454 -504 0
-454 -505 0
-454 -506 0
-454 -507 0
-454 -508 0
-454 -509 0
-454 -510 0
-454 -511 0
-454 -512 0
-455 -456 0
-455 -457 0
-455 -458 0
-455 -459 0
-455 -460 0
-455 -461 0
-455 -462 0
-455 -463 0
-455 -464 0
-455 -465 0
-455 -466 0
-455 -467 0
-455 -468 0
-455 -469 0
-455 -470 0
-455 -471 0
-455 -472 0
-455 -473 0
-455 -474 0
-455 -475 0
-455 -476 0
-455 -477 0
-455 -478 0
-455 -479 0
-455 -480 0
-455 -481 0
-455 -482 0
-455 -483 0
-455 -484 0
-455 -485 0
-455 -486 0
-455 -487 0
-455 -488 0
-455 -489 0
-455 -490 0
-455 -491 0
-455 -492 0
-455 -493 0
-455 -494 0
-455 -495 0
-455 -496 0
-455 -497 0
-455 -498 0
-455 -499 0
-455 -500 0
-455 -501 0
-455 -502 0
-455 -503 0
-455 -504 0
-455 -505 0
-455 -506 0
-455 -507 0
-455 -508 0
-455 -509 0
-455 -510 0
-455 -511 0
-455 -512 0
-456 -457 0
-456 -458 0
-456 -459 0
-456 -460 0
-456 -461 0
-456 -462 0
-456 -463 0
-456 -464 0
-456 -465 0
-456 -466 0
-456 -467 0
-456 -468 0
-456 -469 0
-456 -470 0
-456 -471 0
-456 -472 0
-456 -473 0
-456 -474 0
-456 -475 0
-456 -476 0
-456 -477 0
-456 -478 0
-456 -479 0
-456 -480 0
-456 -481 0
-456 -482 0
-456 -483 0
-456 -484 0
-456 -485 0
-456 -486 0
-456 -487 0
-456 -488 0
-456 -489 0
-456 -490 0
-456 -491 0
-456 -492 0
-456 -493 0
-456 -494 0
-456 -495 0
-456 -496 0
-456 -497 0
-456 -498 0
-456 -499 0
-456 -500 0
-456 -501 0
-456 -502 0
-456 -503 0
-456 -504 0
-456 -505 0
-456 -506 0
-456 -507 0
-456 -508 0
-456 -509 0
-456 -510 0
-456 -511 0
-456 -512 0
-457 -458 0
-457 -459 0
-457 -460 0
-457 -461 0
-457 -462 0
-457 -463 0
-457 -464 0
-457 -465 0
-457 -466 0
-457 -467 0
-457 -468 0
-457 -469 0
-457 -470 0
-457 -471 0
-457 -472 0
-457 -473 0
-457 -474 0
-457 -475 0
-457 -476 0
-457 -477 0
-457 -478 0
-457 -479 0
-457 -480 0
-457 -481 0
-457 -482 0
-457 -483 0
-457 -484 0
-457 -485 0
-457 -486 0
-457 -487 0
-457 -488 0
-457 -489 0
-457 -490 0
-457 -491 0
-457 -492 0
-457 -493 0
-457 -494 0
-457 -495 0
-457 -496 0
-457 -497 0
-457 -498 0
-457 -499 0
-457 -500 0
-457 -501 0
-457 -502 0
-457 -503 0
-457 -504 0
-457 -505 0
-457 -506 0
-457 -507 0
-457 -508 0
-457 -509 0
-457 -510 0
-457 -511 0
-457 -512 0
-458 -459 0
-458 -460 0
-458 -461 0
-458 -462 0
-458 -463 0
-458 -464 0
-458 -465 0
-458 -466 0
-458 -467 0
-458 -468 0
-458 -469 0
-458 -470 0
-458 -471 0
-458 -472 0
-458 -473 0
-458 -474 0
-458 -475 0
-458 -476 0
-458 -477 0
-458 -478 0
-458 -479 0
-458 -480 0
-458 -481 0
-458 -482 0
-458 -483 0
-458 -484 0
-458 -485 0
-458 -486 0
-458 -487 0
-458 -488 0
-458 -489 0
-458 -490 0
-458 -491 0
-458 -492 0
-458 -493 0
-458 -494 0
-458 -495 0
-458 -496 0
-458 -497 0
-458 -498 0
-458 -499 0
-458 -500 0
-458 -501 0
-458 -502 0
-458 -503 0
-458 -504 0
-458 -505 0
-458 -506 0
-458 -507 0
-458 -508 0
-458 -509 0
-458 -510 0
-458 -511 0
-458 -512 0
-459 -460 0
-459 -461 0
-459 -462 0
-459 -463 0
-459 -464 0
-459 -465 0
-459 -466 0
-459 -467 0
-459 -468 0
-459 -469 0
-459 -470 0
-459 -471 0
-459 -472 0
-459 -473 0
-459 -474 0
-459 -475 0
-459 -476 0
-459 -477 0
-459 -478 0
-459 -479 0
-459 -480 0
-459 -481 0
-459 -482 0
-459 -483 0
-459 -484 0
-459 -485 0
-459 -486 0
-459 -487 0
-459 -488 0
-459 -489 0
-459 -490 0
-459 -491 0
-459 -492 0
-459 -493 0
-459 -494 0
-459 -495 0
-459 -496 0
-459 -497 0
-459 -498 0
-459 -499 0
-459 -500 0
-459 -501 0
-459 -502 0
-459 -503 0
-459 -504 0
-459 -505 0
-459 -506 0
-459 -507 0
-459 -508 0
-459 -509 0
-459 -510 0
-459 -511 0
-459 -512 0
-460 -461 0
-460 -462 0
-460 -463 0
-460 -464 0
-460 -465 0
-460 -466 0
-460 -467 0
-460 -468 0
-460 -469 0
-460 -470 0
-460 -471 0
-460 -472 0
-460 -473 0
-460 -474 0
-460 -475 0
-460 -476 0
-460 -477 0
-460 -478 0
-460 -479 0
-460 -480 0
-460 -481 0
-460 -482 0
-460 -483 0
-460 -484 0
-460 -485 0
-460 -486 0
-460 -487 0
-460 -488 0
-460 -489 0
-460 -490 0
-460 -491 0
-460 -492 0
-460 -493 0
-460 -494 0
-460 -495 0
-460 -496 0
-460 -497 0
-460 -498 0
-460 -499 0
-460 -500 0
-460 -501 0
-460 -502 0
-460 -503 0
-460 -504 0
-460 -505 0
-460 -506 0
-460 -507 0
-460 -508 0
-460 -509 0
-460 -510 0
-460 -511 0
-460 -512 0
-461 -462 0
-461 -463 0
-461 -464 0
-461 -465 0
-461 -466 0
-461 -467 0
-461 -468 0
-461 -469 0
-461 -470 0
-461 -471 0
-461 -472 0
-461 -473 0
-461 -474 0
-461 -475 0
-461 -476 0
-461 -477 0
-461 -478 0
-461 -479 0
-461 -480 0
-461 -481 0
-461 -482 0
-461 -483 0
-461 -484 0
-461 -485 0
-461 -486 0
-461 -487 0
-461 -488 0
-461 -489 0
-461 -490 0
-461 -491 0
-461 -492 0
-461 -493 0
-461 -494 0
-461 -495 0
-461 -496 0
-461 -497 0
-461 -498 0
-461 -499 0
-461 -500 0
-461 -501 0
-461 -502 0
-461 -503 0
-461 -504 0
-461 -505 0
-461 -506 0
-461 -507 0
-461 -508 0
-461 -509 0
-461 -510 0
-461 -511 0
-461 -512 0
-462 -463 0
-462 -464 0
-462 -465 0
-462 -466 0
-462 -467 0
-462 -468 0
-462 -469 0
-462 -470 0
-462 -471 0
-462 -472 0
-462 -473 0
-462 -474 0
-462 -475 0
-462 -476 0
-462 -477 0
-462 -478 0
-462 -479 0
-462 -480 0
-462 -481 0
-462 -482 0
-462 -483 0
-462 -484 0
-462 -485 0
-462 -486 0
-462 -487 0
-462 -488 0
-462 -489 0
-462 -490 0
-462 -491 0
-462 -492 0
-462 -493 0
-462 -494 0
-462 -495 0
-462 -496 0
-462 -497 0
-462 -498 0
-462 -499 0
-462 -500 0
-462 -501 0
-462 -502 0
-462 -503 0
-462 -504 0
-462 -505 0
-462 -506 0
-462 -507 0
-462 -508 0
-462 -509 0
-462 -510 0
-462 -511 0
-462 -512 0
-463 -464 0
-463 -465 0
-463 -466 0
-463 -467 0
-463 -468 0
-463 -469 0
-463 -470 0
-463 -471 0
-463 -472 0
-463 -473 0
-463 -474 0
-463 -475 0
-463 -476 0
-463 -477 0
-463 -478 0
-463 -479 0
-463 -480 0
-463 -481 0
-463 -482 0
-463 -483 0
-463 -484 0
-463 -485 0
-463 -486 0
-463 -487 0
-463 -488 0
-463 -489 0
-463 -490 0
-463 -491 0
-463 -492 0
-463 -493 0
-463 -494 0
-463 -495 0
-463 -496 0
-463 -497 0
-463 -498 0
-463 -499 0
-463 -500 0
-463 -501 0
-463 -502 0
-463 -503 0
-463 -504 0
-463 -505 0
-463 -506 0
-463 -507 0
-463 -508 0
-463 -509 0
-463 -510 0
-463 -511 0
-463 -512 0
-464 -465 0
-464 -466 0
-464 -467 0
-464 -468 0
-464 -469 0
-464 -470 0
-464 -471 0
-464 -472 0
-464 -473 0
-464 -474 0
-464 -475 0
-464 -476 0
-464 -477 0
-464 -478 0
-464 -479 0
-464 -480 0
-464 -481 0
-464 -482 0
-464 -483 0
-464 -484 0
-464 -485 0
-464 -486 0
-464 -487 0
-464 -488 0
-464 -489 0
-464 -490 0
-464 -491 0
-464 -492 0
-464 -493 0
-464 -494 0
-464 -495 0
-464 -496 0
-464 -497 0
-464 -498 0
-464 -499 0
-464 -500 0
-464 -501 0
-464 -502 0
-464 -503 0
-464 -504 0
-464 -505 0
-464 -506 0
-464 -507 0
-464 -508 0
-464 -509 0
-464 -510 0
-464 -511 0
-464 -512 0
-465 -466 0
-465 -467 0
-465 -468 0
-465 -469 0
-465 -470 0
-465 -471 0
-465 -472 0
-465 -473 0
-465 -474 0
-465 -475 0
-465 -476 0
-465 -477 0
-465 -478 0
-465 -479 0
-465 -480 0
-465 -481 0
-465 -482 0
-465 -483 0
-465 -484 0
-465 -485 0
-465 -486 0
-465 -487 0
-465 -488 0
-465 -489 0
-465 -490 0
-465 -491 0
-465 -492 0
-465 -493 0
-465 -494 0
-465 -495 0
-465 -496 0
-465 -497 0
-465 -498 0
-465 -499 0
-465 -500 0
-465 -501 0
-465 -502 0
-465 -503 0
-465 -504 0
-465 -505 0
-465 -506 0
-465 -507 0
-465 -508 0
-465 -509 0
-465 -510 0
-465 -511 0
-465 -512 0
-466 -467 0
-466 -468 0
-466 -469 0
-466 -470 0
-466 -471 0
-466 -472 0
-466 -473 0
-466 -474 0
-466 -475 0
-466 -476 0
-466 -477 0
-466 -478 0
-466 -479 0
-466 -480 0
-466 -481 0
-466 -482 0
-466 -483 0
-466 -484 0
-466 -485 0
-466 -486 0
-466 -487 0
-466 -488 0
-466 -489 0
-466 -490 0
-466 -491 0
-466 -492 0
-466 -493 0
-466 -494 0
-466 -495 0
-466 -496 0
-466 -497 0
-466 -498 0
-466 -499 0
-466 -500 0
-466 -501 0
-466 -502 0
-466 -503 0
-466 -504 0
-466 -505 0
-466 -506 0
-466 -507 0
-466 -508 0
-466 -509 0
-466 -510 0
-466 -511 0
-466 -512 0
-467 -468 0
-467 -469 0
-467 -470 0
-467 -471 0
-467 -472 0
-467 -473 0
-467 -474 0
-467 -475 0
-467 -476 0
-467 -477 0
-467 -478 0
-467 -479 0
-467 -480 0
-467 -481 0
-467 -482 0
-467 -483 0
-467 -484 0
-467 -485 0
-467 -486 0
-467 -487 0
-467 -488 0
-467 -489 0
-467 -490 0
-467 -491 0
-467 -492 0
-467 -493 0
-467 -494 0
-467 -495 0
-467 -496 0
-467 -497 0
-467 -498 0
-467 -499 0
-467 -500 0
-467 -501 0
-467 -502 0
-467 -503 0
-467 -504 0
-467 -505 0
-467 -506 0
-467 -507 0
-467 -508 0
-467 -509 0
-467 -510 0
-467 -511 0
-467 -512 0
-468 -469 0
-468 -470 0
-468 -471 0
-468 -472 0
-468 -473 0
-468 -474 0
-468 -475 0
-468 -476 0
-468 -477 0
-468 -478 0
-468 -479 0
-468 -480 0
-468 -481 0
-468 -482 0
-468 -483 0
-468 -484 0
-468 -485 0
-468 -486 0
-468 -487 0
-468 -488 0
-468 -489 0
-468 -490 0
-468 -491 0
-468 -492 0
-468 -493 0
-468 -494 0
-468 -495 0
-468 -496 0
-468 -497 0
-468 -498 0
-468 -499 0
-468 -500 0
-468 -501 0
-468 -502 0
-468 -503 0
-468 -504 0
-468 -505 0
-468 -506 0
-468 -507 0
-468 -508 0
-468 -509 0
-468 -510 0
-468 -511 0
-468 -512 0
-469 -470 0
-469 -471 0
-469 -472 0
-469 -473 0
-469 -474 0
-469 -475 0
-469 -476 0
-469 -477 0
-469 -478 0
-469 -479 0
-469 -480 0
-469 -481 0
-469 -482 0
-469 -483 0
-469 -484 0
-469 -485 0
-469 -486 0
-469 -487 0
-469 -488 0
-469 -489 0
-469 -490 0
-469 -491 0
-469 -492 0
-469 -493 0
-469 -494 0
-469 -495 0
-469 -496 0
-469 -497 0
-469 -498 0
-469 -499 0
-469 -500 0
-469 -501 0
-469 -502 0
-469 -503 0
-469 -504 0
-469 -505 0
-469 -506 0
-469 -507 0
-469 -508 0
-469 -509 0
-469 -510 0
-469 -511 0
-469 -512 0
-470 -471 0
-470 -472 0
-470 -473 0
-470 -474 0
-470 -475 0
-470 -476 0
-470 -477 0
-470 -478 0
-470 -479 0
-470 -480 0
-470 -481 0
-470 -482 0
-470 -483 0
-470 -484 0
-470 -485 0
-470 -486 0
-470 -487 0
-470 -488 0
-470 -489 0
-470 -490 0
-470 -491 0
-470 -492 0
-470 -493 0
-470 -494 0
-470 -495 0
-470 -496 0
-470 -497 0
-470 -498 0
-470 -499 0
-470 -500 0
-470 -501 0
-470 -502 0
-470 -503 0
-470 -504 0
-470 -505 0
-470 -506 0
-470 -507 0
-470 -508 0
-470 -509 0
-470 -510 0
-470 -511 0
-470 -512 0
-471 -472 0
-471 -473 0
-471 -474 0
-471 -475 0
-471 -476 0
-471 -477 0
-471 -478 0
-471 -479 0
-471 -480 0
-471 -481 0
-471 -482 0
-471 -483 0
-471 -484 0
-471 -485 0
-471 -486 0
-471 -487 0
-471 -488 0
-471 -489 0
-471 -490 0
-471 -491 0
-471 -492 0
-471 -493 0
-471 -494 0
-471 -495 0
-471 -496 0
-471 -497 0
-471 -498 0
-471 -499 0
-471 -500 0
-471 -501 0
-471 -502 0
-471 -503 0
-471 -504 0
-471 -505 0
-471 -506 0
-471 -507 0
-471 -508 0
-471 -509 0
-471 -510 0
-471 -511 0
-471 -512 0
-472 -473 0
-472 -474 0
-472 -475 0
-472 -476 0
-472 -477 0
-472 -478 0
-472 -479 0
-472 -480 0
-472 -481 0
-472 -482 0
-472 -483 0
-472 -484 0
-472 -485 0
-472 -486 0
-472 -487 0
-472 -488 0
-472 -489 0
-472 -490 0
-472 -491 0
-472 -492 0
-472 -493 0
-472 -494 0
-472 -495 0
-472 -496 0
-472 -497 0
-472 -498 0
-472 -499 0
-472 -500 0
-472 -501 0
-472 -502 0
-472 -503 0
-472 -504 0
-472 -505 0
-472 -506 0
-472 -507 0
-472 -508 0
-472 -509 0
-472 -510 0
-472 -511 0
-472 -512 0
-473 -474 0
-473 -475 0
-473 -476 0
-473 -477 0
-473 -478 0
-473 -479 0
-473 -480 0
-473 -481 0
-473 -482 0
-473 -483 0
-473 -484 0
-473 -485 0
-473 -486 0
-473 -487 0
-473 -488 0
-473 -489 0
-473 -490 0
-473 -491 0
-473 -492 0
-473 -493 0
-473 -494 0
-473 -495 0
-473 -496 0
-473 -497 0
-473 -498 0
-473 -499 0
-473 -500 0
-473 -501 0
-473 -502 0
-473 -503 0
-473 -504 0
-473 -505 0
-473 -506 0
-473 -507 0
-473 -508 0
-473 -509 0
-473 -510 0
-473 -511 0
-473 -512 0
-474 -475 0
-474 -476 0
-474 -477 0
-474 -478 0
-474 -479 0
-474 -480 0
-474 -481 0
-474 -482 0
-474 -483 0
-474 -484 0
-474 -485 0
-474 -486 0
-474 -487 0
-474 -488 0
-474 -489 0
-474 -490 0
-474 -491 0
-474 -492 0
-474 -493 0
-474 -494 0
-474 -495 0
-474 -496 0
-474 -497 0
-474 -498 0
-474 -499 0
-474 -500 0
-474 -501 0
-474 -502 0
-474 -503 0
-474 -504 0
-474 -505 0
-474 -506 0
-474 -507 0
-474 -508 0
-474 -509 0
-474 -510 0
-474 -511 0
-474 -512 0
-475 -476 0
-475 -477 0
-475 -478 0
-475 -479 0
-475 -480 0
-475 -481 0
-475 -482 0
-475 -483 0
-475 -484 0
-475 -485 0
-475 -486 0
-475 -487 0
-475 -488 0
-475 -489 0
-475 -490 0
-475 -491 0
-475 -492 0
-475 -493 0
-475 -494 0
-475 -495 0
-475 -496 0
-475 -497 0
-475 -498 0
-475 -499 0
-475 -500 0
-475 -501 0
-475 -502 0
-475 -503 0
-475 -504 0
-475 -505 0
-475 -506 0
-475 -507 0
-475 -508 0
-475 -509 0
-475 -510 0
-475 -511 0
-475 -512 0
-476 -477 0
-476 -478 0
-476 -479 0
-476 -480 0
-476 -481 0
-476 -482 0
-476 -483 0
-476 -484 0
-476 -485 0
-476 -486 0
-476 -487 0
-476 -488 0
-476 -489 0
-476 -490 0
-476 -491 0
-476 -492 0
-476 -493 0
-476 -494 0
-476 -495 0
-476 -496 0
-476 -497 0
-476 -498 0
-476 -499 0
-476 -500 0
-476 -501 0
-476 -502 0
-476 -503 0
-476 -504 0
-476 -505 0
-476 -506 0
-476 -507 0
-476 -508 0
-476 -509 0
-476 -510 0
-476 -511 0
-476 -512 0
-477 -478 0
-477 -479 0
-477 -480 0
-477 -481 0
-477 -482 0
-477 -483 0
-477 -484 0
-477 -485 0
-477 -486 0
-477 -487 0
-477 -488 0
-477 -489 0
-477 -490 0
-477 -491 0
-477 -492 0
-477 -493 0
-477 -494 0
-477 -495 0
-477 -496 0
-477 -497 0
-477 -498 0
-477 -499 0
-477 -500 0
-477 -501 0
-477 -502 0
-477 -503 0
-477 -504 0
-477 -505 0
-477 -506 0
-477 -507 0
-477 -508 0
-477 -509 0
-477 -510 0
-477 -511 0
-477 -512 0
-478 -479 0
-478 -480 0
-478 -481 0
-478 -482 0
-478 -483 0
-478 -484 0
-478 -485 0
-478 -486 0
-478 -487 0
-478 -488 0
-478 -489 0
-478 -490 0
-478 -491 0
-478 -492 0
-478 -493 0
-478 -494 0
-478 -495 0
-478 -496 0
-478 -497 0
-478 -498 0
-478 -499 0
-478 -500 0
-478 -501 0
-478 -502 0
-478 -503 0
-478 -504 0
-478 -505 0
-478 -506 0
-478 -507 0
-478 -508 0
-478 -509 0
-478 -510 0
-478 -511 0
-478 -512 0
-479 -480 0
-479 -481 0
-479 -482 0
-479 -483 0
-479 -484 0
-479 -485 0
-479 -486 0
-479 -487 0
-479 -488 0
-479 -489 0
-479 -490 0
-479 -491 0
-479 -492 0
-479 -493 0
-479 -494 0
-479 -495 0
-479 -496 0
-479 -497 0
-479 -498 0
-479 -499 0
-479 -500 0
-479 -501 0
-479 -502 0
-479 -503 0
-479 -504 0
-479 -505 0
-479 -506 0
-479 -507 0
-479 -508 0
-479 -509 0
-479 -510 0
-479 -511 0
-479 -512 0
-480 -481 0
-480 -482 0
-480 -483 0
-480 -484 0
-480 -485 0
-480 -486 0
-480 -487 0
-480 -488 0
-480 -489 0
-480 -490 0
-480 -491 0
-480 -492 0
-480 -493 0
-480 -494 0
-480 -495 0
-480 -496 0
-480 -497 0
-480 -498 0
-480 -499 0
-480 -500 0
-480 -501 0
-480 -502 0
-480 -503 0
-480 -504 0
-480 -505 0
-480 -506 0
-480 -507 0
-480 -508 0
-480 -509 0
-480 -510 0
-480 -511 0
-480 -512 0
-481 -482 0
-481 -483 0
-481 -484 0
-481 -485 0
-481 -486 0
-481 -487 0
-481 -488 0
-481 -489 0
-481 -490 0
-481 -491 0
-481 -492 0
-481 -493 0
-481 -494 0
-481 -495 0
-481 -496 0
-481 -497 0
-481 -498 0
-481 -499 0
-481 -500 0
-481 -501 0
-481 -502 0
-481 -503 0
-481 -504 0
-481 -505 0
-481 -506 0
-481 -507 0
-481 -508 0
-481 -509 0
-481 -510 0
-481 -511 0
-481 -512 0
-482 -483 0
-482 -484 0
-482 -485 0
-482 -486 0
-482 -487 0
-482 -488 0
-482 -489 0
-482 -490 0
-482 -491 0
-482 -492 0
-482 -493 0
-482 -494 0
-482 -495 0
-482 -496 0
-482 -497 0
-482 -498 0
-482 -499 0
-482 -500 0
-482 -501 0
-482 -502 0
-482 -503 0
-482 -504 0
-482 -505 0
-482 -506 0
-482 -507 0
-482 -508 0
-482 -509 0
-482 -510 0
-482 -511 0
-482 -512 0
-483 -484 0
-483 -485 0
-483 -486 0
-483 -487 0
-483 -488 0
-483 -489 0
-483 -490 0
-483 -491 0
-483 -492 0
-483 -493 0
-483 -494 0
-483 -495 0
-483 -496 0
-483 -497 0
-483 -498 0
-483 -499 0
-483 -500 0
-483 -501 0
-483 -502 0
-483 -503 0
-483 -504 0
-483 -505 0
-483 -506 0
-483 -507 0
-483 -508 0
-483 -509 0
-483 -510 0
-483 -511 0
-483 -512 0
-484 -485 0
-484 -486 0
-484 -487 0
-484 -488 0
-484 -489 0
-484 -490 0
-484 -491 0
-484 -492 0
-484 -493 0
-484 -494 0
-484 -495 0
-484 -496 0
-484 -497 0
-484 -498 0
-484 -499 0
-484 -500 0
-484 -501 0
-484 -502 0
-484 -503 0
-484 -504 0
-484 -505 0
-484 -506 0
-484 -507 0
-484 -508 0
-484 -509 0
-484 -510 0
-484 -511 0
-484 -512 0
-485 -486 0
-485 -487 0
-485 -488 0
-485 -489 0
-485 -490 0
-485 -491 0
-485 -492 0
-485 -493 0
-485 -494 0
-485 -495 0
-485 -496 0
-485 -497 0
-485 -498 0
-485 -499 0
-485 -500 0
-485 -501 0
-485 -502 0
-485 -503 0
-485 -504 0
-485 -505 0
-485 -506 0
-485 -507 0
-485 -508 0
-485 -509 0
-485 -510 0
-485 -511 0
-485 -512 0
-486 -487 0
-486 -488 0
-486 -489 0
-486 -490 0
-486 -491 0
-486 -492 0
-486 -493 0
-486 -494 0
-486 -495 0
-486 -496 0
-486 -497 0
-486 -498 0
-486 -499 0
-486 -500 0
-486 -501 0
-486 -502 0
-486 -503 0
-486 -504 0
-486 -505 0
-486 -506 0
-486 -507 0
-486 -508 0
-486 -509 0
-486 -510 0
-486 -511 0
-486 -512 0
-487 -488 0
-487 -489 0
-487 -490 0
-487 -491 0
-487 -492 0
-487 -493 0
-487 -494 0
-487 -495 0
-487 -496 0
-487 -497 0
-487 -498 0
-487 -499 0
-487 -500 0
-487 -501 0
-487 -502 0
-487 -503 0
-487 -504 0
-487 -505 0
-487 -506 0
-487 -507 0
-487 -508 0
-487 -509 0
-487 -510 0
-487 -511 0
-487 -512 0
-488 -489 0
-488 -490 0
-488 -491 0
-488 -492 0
-488 -493 0
-488 -494 0
-488 -495 0
-488 -496 0
-488 -497 0
-488 -498 0
-488 -499 0
-488 -500 0
-488 -501 0
-488 -502 0
-488 -503 0
-488 -504 0
-488 -505 0
-488 -506 0
-488 -507 0
-488 -508 0
-488 -509 0
-488 -510 0
-488 -511 0
-488 -512 0
-489 -490 0
-489 -491 0
-489 -492 0
-489 -493 0
-489 -494 0
-489 -495 0
-489 -496 0
-489 -497 0
-489 -498 0
-489 -499 0
-489 -500 0
-489 -501 0
-489 -502 0
-489 -503 0
-489 -504 0
-489 -505 0
-489 -506 0
-489 -507 0
-489 -508 0
-489 -509 0
-489 -510 0
-489 -511 0
-489 -512 0
-490 -491 0
-490 -492 0
-490 -493 0
-490 -494 0
-490 -495 0
-490 -496 0
-490 -497 0
-490 -498 0
-490 -499 0
-490 -500 0
-490 -501 0
-490 -502 0
-490 -503 0
-490 -504 0
-490 -505 0
-490 -506 0
-490 -507 0
-490 -508 0
-490 -509 0
-490 -510 0
-490 -511 0
-490 -512 0
-491 -492 0
-491 -493 0
-491 -494 0
-491 -495 0
-491 -496 0
-491 -497 0
-491 -498 0
-491 -499 0
-491 -500 0
-491 -501 0
-491 -502 0
-491 -503 0
-491 -504 0
-491 -505 0
-491 -506 0
-491 -507 0
-491 -508 0
-491 -509 0
-491 -510 0
-491 -511 0
-491 -512 0
-492 -493 0
-492 -494 0
-492 -495 0
-492 -496 0
-492 -497 0
-492 -498 0
-492 -499 0
-492 -500 0
-492 -501 0
-492 -502 0
-492 -503 0
-492 -504 0
-492 -505 0
-492 -506 0
-492 -507 0
-492 -508 0
-492 -509 0
-492 -510 0
-492 -511 0
-492 -512 0
-493 -494 0
-493 -495 0
-493 -496 0
-493 -497 0
-493 -498 0
-493 -499 0
-493 -500 0
-493 -501 0
-493 -502 0
-493 -503 0
-493 -504 0
-493 -505 0
-493 -506 0
-493 -507 0
-493 -508 0
-493 -509 0
-493 -510 0
-493 -511 0
-493 -512 0
-494 -495 0
-494 -496 0
-494 -497 0
-494 -498 0
-494 -499 0
-494 -500 0
-494 -501 0
-494 -502 0
-494 -503 0
-494 -504 0
-494 -505 0
-494 -506 0
-494 -507 0
-494 -508 0
-494 -509 0
-494 -510 0
-494 -511 0
-494 -512 0
-495 -496 0
-495 -497 0
-495 -498 0
-495 -499 0
-495 -500 0
-495 -501 0
-495 -502 0
-495 -503 0
-495 -504 0
-495 -505 0
-495 -506 0
-495 -507 0
-495 -508 0
-495 -509 0
-495 -510 0
-495 -511 0
-495 -512 0
-496 -497 0
-496 -498 0
-496 -499 0
-496 -500 0
-496 -501 0
-496 -502 0
-496 -503 0
-496 -504 0
-496 -505 0
-496 -506 0
-496 -507 0
-496 -508 0
-496 -509 0
-496 -510 0
-496 -511 0
-496 -512 0
-497 -498 0
-497 -499 0
-497 -500 0
-497 -501 0
-497 -502 0
-497 -503 0
-497 -504 0
-497 -505 0
-497 -506 0
-497 -507 0
-497 -508 0
-497 -509 0
-497 -510 0
-497 -511 0
-497 -512 0
-498 -499 0
-498 -500 0
-498 -501 0
-498 -502 0
-498 -503 0
-498 -504 0
-498 -505 0
-498 -506 0
-498 -507 0
-498 -508 0
-498 -509 0
-498 -510 0
-498 -511 0
-498 -512 0
-499 -500 0
-499 -501 0
-499 -502 0
-499 -503 0
-499 -504 0
-499 -505 0
-499 -506 0
-499 -507 0
-499 -508 0
-499 -509 0
-499 -510 0
-499 -511 0
-499 -512 0
-500 -501 0
-500 -502 0
-500 -503 0
-500 -504 0
-500 -505 0
-500 -506 0
-500 -507 0
-500 -508 0
-500 -509 0
-500 -510 0
-500 -511 0
-500 -512 0
-501 -502 0
-501 -503 0
-501 -504 0
-501 -505 0
-501 -506 0
-501 -507 0
-501 -508 0
-501 -509 0
-501 -510 0
-501 -511 0
-501 -512 0
-502 -503 0
-502 -504 0
-502 -505 0
-502 -506 0
-502 -507 0
-502 -508 0
-502 -509 0
-502 -510 0
-502 -511 0
-502 -512 0
-503 -504 0
-503 -505 0
-503 -506 0
-503 -507 0
-503 -508 0
-503 -509 0
-503 -510 0
-503 -511 0
-503 -512 0
-504 -505 0
-504 -506 0
-504 -507 0
-504 -508 0
-504 -509 0
-504 -510 0
-504 -511 0
-504 -512 0
-505 -506 0
-505 -507 0
-505 -508 0
-505 -509 0
-505 -510 0
-505 -511 0
-505 -512 0
-506 -507 0
-506 -508 0
-506 -509 0
-506 -510 0
-506 -511 0
-506 -512 0
-507 -508 0
-507 -509 0
-507 -510 0
-507 -511 0
-507 -512 0
-508 -509 0
-508 -510 0
-508 -511 0
-508 -512 0
-509 -510 0
-509 -511 0
-509 -512 0
-510 -511 0
-510 -512 0
-511 -512 0
-519 1 0
-519 129 0
-1 -129 519 0
-520 2 0
-520 130 0
-2 -130 520 0
-521 3 0
-521 131 0
-3 -131 521 0
-522 4 0
-522 132 0
-4 -132 522 0
-523 5 0
-523 133 0
-5 -133 523 0
-524 6 0
-524 134 0
-6 -134 524 0
-525 7 0
-525 135 0
-7 -135 525 0
-526 8 0
-526 136 0
-8 -136 526 0
-527 9 0
-527 137 0
-9 -137 527 0
-528 10 0
-528 138 0
-10 -138 528 0
-529 11 0
-529 139 0
-11 -139 529 0
-530 12 0
-530 140 0
-12 -140 530 0
-531 13 0
-531 141 0
-13 -141 531 0
-532 14 0
-532 142 0
-14 -142 532 0
-533 15 0
-533 143 0
-15 -143 533 0
-534 16 0
-534 144 0
-16 -144 534 0
-535 17 0
-535 145 0
-17 -145 535 0
-536 18 0
-536 146 0
-18 -146 536 0
-537 19 0
-537 147 0
-19 -147 537 0
-538 20 0
-538 148 0
-20 -148 538 0
-539 21 0
-539 149 0
-21 -149 539 0
-540 22 0
-540 150 0
-22 -150 540 0
-541 23 0
-541 151 0
-23 -151 541 0
-542 24 0
-542 152 0
-24 -152 542 0
-543 25 0
-543 153 0
-25 -153 543 0
-544 26 0
-544 154 0
-26 -154 544 0
-545 27 0
-545 155 0
-27 -155 545 0
-546 28 0
-546 156 0
-28 -156 546 0
-547 29 0
-547 157 0
-29 -157 547 0
-548 30 0
-548 158 0
-30 -158 548 0
-549 31 0
-549 159 0
-31 -159 549 0
-550 32 0
-550 160 0
-32 -160 550 0
-551 33 0
-551 161 0
-33 -161 551 0
-552 34 0
-552 162 0
-34 -162 552 0
-553 35 0
-553 163 0
-35 -163 553 0
-554 36 0
-554 164 0
-36 -164 554 0
-555 37 0
-555 165 0
-37 -165 555 0
-556 38 0
-556 166 0
-38 -166 556 0
-557 39 0
-557 167 0
-39 -167 557 0
-558 40 0
-558 168 0
-40 -168 558 0
-559 41 0
-559 169 0
-41 -169 559 0
-560 42 0
-560 170 0
-42 -170 560 0
-561 43 0
-561 171 0
-43 -171 561 0
-562 44 0
-562 172 0
-44 -172 562 0
-563 45 0
-563 173 0
-45 -173 563 0
-564 46 0
-564 174 0
-46 -174 564 0
-565 47 0
-565 175 0
-47 -175 565 0
-566 48 0
-566 176 0
-48 -176 566 0
-567 49 0
-567 177 0
-49 -177 567 0
-568 50 0
-568 178 0
-50 -178 568 0
-569 51 0
-569 179 0
-51 -179 569 0
-570 52 0
-570 180 0
-52 -180 570 0
-571 53 0
-571 181 0
-53 -181 571 0
-572 54 0
-572 182 0
-54 -182 572 0
-573 55 0
-573 183 0
-55 -183 573 0
-574 56 0
-574 184 0
-56 -184 574 0
-575 57 0
-575 185 0
-57 -185 575 0
-576 58 0
-576 186 0
-58 -186 576 0
-577 59 0
-577 187 0
-59 -187 577 0
-578 60 0
-578 188 0
-60 -188 578 0
-579 61 0
-579 189 0
-61 -189 579 0
-580 62 0
-580 190 0
-62 -190 580 0
-581 63 0
-581 191 0
-63 -191 581 0
-582 64 0
-582 192 0
-64 -192 582 0
-583 65 0
-583 193 0
-65 -193 583 0
-584 66 0
-584 194 0
-66 -194 584 0
-585 67 0
-585 195 0
-67 -195 585 0
-586 68 0
-586 196 0
-68 -196 586 0
-587 69 0
-587 197 0
-69 -197 587 0
-588 70 0
-588 198 0
-70 -198 588 0
-589 71 0
-589 199 0
-71 -199 589 0
-590 72 0
-590 200 0
-72 -200 590 0
-591 73 0
-591 201 0
-73 -201 591 0
-592 74 0
-592 202 0
-74 -202 592 0
-593 75 0
-593 203 0
-75 -203 593 0
-594 76 0
-594 204 0
-76 -204 594 0
-595 77 0
-595 205 0
-77 -205 595 0
-596 78 0
-596 206 0
-78 -206 596 0
-597 79 0
-597 207 0
-79 -207 597 0
-598 80 0
-598 208 0
-80 -208 598 0
-599 81 0
-599 209 0
-81 -209 599 0
-600 82 0
-600 210 0
-82 -210 600 0
-601 83 0
-601 211 0
-83 -211 601 0
-602 84 0
-602 212 0
-84 -212 602 0
-603 85 0
-603 213 0
-85 -213 603 0
-604 86 0
-604 214 0
-86 -214 604 0
-605 87 0
-605 215 0
-87 -215 605 0
-606 88 0
-606 216 0
-88 -216 606 0
-607 89 0
-607 217 0
-89 -217 607 0
-608 90 0
-608 218 0
-90 -218 608 0
-609 91 0
-609 219 0
-91 -219 609 0
-610 92 0
-610 220 0
-92 -220 610 0
-611 93 0
-611 221 0
-93 -221 611 0
-612 94 0
-612 222 0
-94 -222 612 0
-613 95 0
-613 223 0
-95 -223 613 0
-614 96 0
-614 224 0
-96 -224 614 0
-615 97 0
-615 225 0
-97 -225 615 0
-616 98 0
-616 226 0
-98 -226 616 0
-617 99 0
-617 227 0
-99 -227 617 0
-618 100 0
-618 228 0
-100 -228 618 0
-619 101 0
-619 229 0
-101 -229 619 0
-620 102 0
-620 230 0
-102 -230 620 0
-621 103 0
-621 231 0
-103 -231 621 0
-622 104 0
-622 232 0
-104 -232 622 0
-623 105 0
-623 233 0
-105 -233 623 0
-624 106 0
-624 234 0
-106 -234 624 0
-625 107 0
-625 235 0
-107 -235 625 0
-626 108 0
-626 236 0
-108 -236 626 0
-627 109 0
-627 237 0
-109 -237 627 0
-628 110 0
-628 238 0
-110 -238 628 0
-629 111 0
-629 239 0
-111 -239 629 0
-630 112 0
-630 240 0
-112 -240 630 0
-631 113 0
-631 241 0
-113 -241 631 0
-632 114 0
-632 242 0
-114 -242 632 0
-633 115 0
-633 243 0
-115 -243 633 0
-634 116 0
-634 244 0
-116 -244 634 0
-635 117 0
-635 245 0
-117 -245 635 0
-636 118 0
-636 246 0
-118 -246 636 0
-637 119 0
-637 247 0
-119 -247 637 0
-638 120 0
-638 248 0
-120 -248 638 0
-639 121 0
-639 249 0
-121 -249 639 0
-640 122 0
-640 250 0
-122 -250 640 0
-641 123 0
-641 251 0
-123 -251 641 0
-642 124 0
-642 252 0
-124 -252 642 0
-643 125 0
-643 253 0
-125 -253 643 0
-644 126 0
-644 254 0
-126 -254 644 0
-645 127 0
-645 255 0
-127 -255 645 0
-646 128 0
-646 256 0
-128 -256 646 0
-513 519 520 521 522 523 524 525 526 527 528 529 530 531 532 533 534 535 536 537 538 539 540 541 542 543 544 545 546 547 548 549 550 551 552 553 554 555 556 557 558 559 560 561 562 563 564 565 566 567 568 569 570 571 572 573 574 575 576 577 578 579 580 581 582 583 584 585 586 587 588 589 590 591 592 593 594 595 596 597 598 599 600 601 602 603 604 605 606 607 608 609 610 611 612 613 614 615 616 617 618 619 620 621 622 623 624 625 626 627 628 629 630 631 632 633 634 635 636 637 638 639 640 641 642 643 644 645 646 0
-519 513 0
-520 513 0
-521 513 0
-522 513 0
-523 513 0
-524 513 0
-525 513 0
-526 513 0
-527 513 0
-528 513 0
-529 513 0
-530 513 0
-531 513 0
-532 513 0
-533 513 0
-534 513 0
-535 513 0
-536 513 0
-537 513 0
-538 513 0
-539 513 0
-540 513 0
-541 513 0
-542 513 0
-543 513 0
-544 513 0
-545 513 0
-546 513 0
-547 513 0
-548 513 0
-549 513 0
-550 513 0
-551 513 0
-552 513 0
-553 513 0
-554 513 0
-555 513 0
-556 513 0
-557 513 0
-558 513 0
-559 513 0
-560 513 0
-561 513 0
-562 513 0
-563 513 0
-564 513 0
-565 513 0
-566 513 0
-567 513 0
-568 513 0
-569 513 0
-570 513 0
-571 513 0
-572 513 0
-573 513 0
-574 513 0
-575 513 0
-576 513 0
-577 513 0
-578 513 0
-579 513 0
-580 513 0
-581 513 0
-582 513 0
-583 513 0
-584 513 0
-585 513 0
-586 513 0
-587 513 0
-588 513 0
-589 513 0
-590 513 0
-591 513 0
-592 513 0
-593 513 0
-594 513 0
-595 513 0
-596 513 0
-597 513 0
-598 513 0
-599 513 0
-600 513 0
-601 513 0
-602 513 0
-603 513 0
-604 513 0
-605 513 0
-606 513 0
-607 513 0
-608 513 0
-609 513 0
-610 513 0
-611 513 0
-612 513 0
-613 513 0
-614 513 0
-615 513 0
-616 513 0
-617 513 0
-618 513 0
-619 513 0
-620 513 0
-621 513 0
-622 513 0
-623 513 0
-624 513 0
-625 513 0
-626 513 0
-627 513 0
-628 513 0
-629 513 0
-630 513 0
-631 513 0
-632 513 0
-633 513 0
-634 513 0
-635 513 0
-636 513 0
-637 513 0
-638 513 0
-639 513 0
-640 513 0
-641 513 0
-642 513 0
-643 513 0
-644 513 0
-645 513 0
-646 513 0
-647 1 0
-647 257 0
-1 -257 647 0
-648 2 0
-648 258 0
-2 -258 648 0
-649 3 0
-649 259 0
-3 -259 649 0
-650 4 0
-650 260 0
-4 -260 650 0
-651 5 0
-651 261 0
-5 -261 651 0
-652 6 0
-652 262 0
-6 -262 652 0
-653 7 0
-653 263 0
-7 -263 653 0
-654 8 0
-654 264 0
-8 -264 654 0
-655 9 0
-655 265 0
-9 -265 655 0
-656 10 0
-656 266 0
-10 -266 656 0
-657 11 0
-657 267 0
-11 -267 657 0
-658 12 0
-658 268 0
-12 -268 658 0
-659 13 0
-659 269 0
-13 -269 659 0
-660 14 0
-660 270 0
-14 -270 660 0
-661 15 0
-661 271 0
-15 -271 661 0
-662 16 0
-662 272 0
-16 -272 662 0
-663 17 0
-663 273 0
-17 -273 663 0
-664 18 0
-664 274 0
-18 -274 664 0
-665 19 0
-665 275 0
-19 -275 665 0
-666 20 0
-666 276 0
-20 -276 666 0
-667 21 0
-667 277 0
-21 -277 667 0
-668 22 0
-668 278 0
-22 -278 668 0
-669 23 0
-669 279 0
-23 -279 669 0
-670 24 0
-670 280 0
-24 -280 670 0
-671 25 0
-671 281 0
-25 -281 671 0
-672 26 0
-672 282 0
-26 -282 672 0
-673 27 0
-673 283 0
-27 -283 673 0
-674 28 0
-674 284 0
-28 -284 674 0
-675 29 0
-675 285 0
-29 -285 675 0
-676 30 0
-676 286 0
-30 -286 676 0
-677 31 0
-677 287 0
-31 -287 677 0
-678 32 0
-678 288 0
-32 -288 678 0
-679 33 0
-679 289 0
-33 -289 679 0
-680 34 0
-680 290 0
-34 -290 680 0
-681 35 0
-681 291 0
-35 -291 681 0
-682 36 0
-682 292 0
-36 -292 682 0
-683 37 0
-683 293 0
-37 -293 683 0
-684 38 0
-684 294 0
-38 -294 684 0
-685 39 0
-685 295 0
-39 -295 685 0
-686 40 0
-686 296 0
-40 -296 686 0
-687 41 0
-687 297 0
-41 -297 687 0
-688 42 0
-688 298 0
-42 -298 688 0
-689 43 0
-689 299 0
-43 -299 689 0
-690 44 0
-690 300 0
-44 -300 690 0
-691 45 0
-691 301 0
-45 -301 691 0
-692 46 0
-692 302 0
-46 -302 692 0
-693 47 0
-693 303 0
-47 -303 693 0
-694 48 0
-694 304 0
-48 -304 694 0
-695 49 0
-695 305 0
-49 -305 695 0
-696 50 0
-696 306 0
-50 -306 696 0
-697 51 0
-697 307 0
-51 -307 697 0
-698 52 0
-698 308 0
-52 -308 698 0
-699 53 0
-699 309 0
-53 -309 699 0
-700 54 0
-700 310 0
-54 -310 700 0
-701 55 0
-701 311 0
-55 -311 701 0
-702 56 0
-702 312 0
-56 -312 702 0
-703 57 0
-703 313 0
-57 -313 703 0
-704 58 0
-704 314 0
-58 -314 704 0
-705 59 0
-705 315 0
-59 -315 705 0
-706 60 0
-706 316 0
-60 -316 706 0
-707 61 0
-707 317 0
-61 -317 707 0
-708 62 0
-708 318 0
-62 -318 708 0
-709 63 0
-709 319 0
-63 -319 709 0
-710 64 0
-710 320 0
-64 -320 710 0
-711 65 0
-711 321 0
-65 -321 711 0
-712 66 0
-712 322 0
-66 -322 712 0
-713 67 0
-713 323 0
-67 -323 713 0
-714 68 0
-714 324 0
-68 -324 714 0
-715 69 0
-715 325 0
-69 -325 715 0
-716 70 0
-716 326 0
-70 -326 716 0
-717 71 0
-717 327 0
-71 -327 717 0
-718 72 0
-718 328 0
-72 -328 718 0
-719 73 0
-719 329 0
-73 -329 719 0
-720 74 0
-720 330 0
-74 -330 720 0
-721 75 0
-721 331 0
-75 -331 721 0
-722 76 0
-722 332 0
-76 -332 722 0
-723 77 0
-723 333 0
-77 -333 723 0
-724 78 0
-724 334 0
-78 -334 724 0
-725 79 0
-725 335 0
-79 -335 725 0
-726 80 0
-726 336 0
-80 -336 726 0
-727 81 0
-727 337 0
-81 -337 727 0
-728 82 0
-728 338 0
-82 -338 728 0
-729 83 0
-729 339 0
-83 -339 729 0
-730 84 0
-730 340 0
-84 -340 730 0
-731 85 0
-731 341 0
-85 -341 731 0
-732 86 0
-732 342 0
-86 -342 732 0
-733 87 0
-733 343 0
-87 -343 733 0
-734 88 0
-734 344 0
-88 -344 734 0
-735 89 0
-735 345 0
-89 -345 735 0
-736 90 0
-736 346 0
-90 -346 736 0
-737 91 0
-737 347 0
-91 -347 737 0
-738 92 0
-738 348 0
-92 -348 738 0
-739 93 0
-739 349 0
-93 -349 739 0
-740 94 0
-740 350 0
-94 -350 740 0
-741 95 0
-741 351 0
-95 -351 741 0
-742 96 0
-742 352 0
-96 -352 742 0
-743 97 0
-743 353 0
-97 -353 743 0
-744 98 0
-744 354 0
-98 -354 744 0
-745 99 0
-745 355 0
-99 -355 745 0
-746 100 0
-746 356 0
-100 -356 746 0
-747 101 0
-747 357 0
-101 -357 747 0
-748 102 0
-748 358 0
-102 -358 748 0
-749 103 0
-749 359 0
-103 -359 749 0
-750 104 0
-750 360 0
-104 -360 750 0
-751 105 0
-751 361 0
-105 -361 751 0
-752 106 0
-752 362 0
-106 -362 752 0
-753 107 0
-753 363 0
-107 -363 753 0
-754 108 0
-754 364 0
-108 -364 754 0
-755 109 0
-755 365 0
-109 -365 755 0
-756 110 0
-756 366 0
-110 -366 756 0
-757 111 0
-757 367 0
-111 -367 757 0
-758 112 0
-758 368 0
-112 -368 758 0
-759 113 0
-759 369 0
-113 -369 759 0
-760 114 0
-760 370 0
-114 -370 760 0
-761 115 0
-761 371 0
-115 -371 761 0
-762 116 0
-762 372 0
-116 -372 762 0
-763 117 0
-763 373 0
-117 -373 763 0
-764 118 0
-764 374 0
-118 -374 764 0
-765 119 0
-765 375 0
-119 -375 765 0
-766 120 0
-766 376 0
-120 -376 766 0
-767 121 0
-767 377 0
-121 -377 767 0
-768 122 0
-768 378 0
-122 -378 768 0
-769 123 0
-769 379 0
-123 -379 769 0
-770 124 0
-770 380 0
-124 -380 770 0
-771 125 0
-771 381 0
-125 -381 771 0
-772 126 0
-772 382 0
-126 -382 772 0
-773 127 0
-773 383 0
-127 -383 773 0
-774 128 0
-774 384 0
-128 -384 774 0
-514 647 648 649 650 651 652 653 654 655 656 657 658 659 660 661 662 663 664 665 666 667 668 669 670 671 672 673 674 675 676 677 678 679 680 681 682 683 684 685 686 687 688 689 690 691 692 693 694 695 696 697 698 699 700 701 702 703 704 705 706 707 708 709 710 711 712 713 714 715 716 717 718 719 720 721 722 723 724 725 726 727 728 729 730 731 732 733 734 735 736 737 738 739 740 741 742 743 744 745 746 747 748 749 750 751 752 753 754 755 756 757 758 759 760 761 762 763 764 765 766 767 768 769 770 771 772 773 774 0
-647 514 0
-648 514 0
-649 514 0
-650 514 0
-651 514 0
-652 514 0
-653 514 0
-654 514 0
-655 514 0
-656 514 0
-657 514 0
-658 514 0
-659 514 0
-660 514 0
-661 514 0
-662 514 0
-663 514 0
-664 514 0
-665 514 0
-666 514 0
-667 514 0
-668 514 0
-669 514 0
-670 514 0
-671 514 0
-672 514 0
-673 514 0
-674 514 0
-675 514 0
-676 514 0
-677 514 0
-678 514 0
-679 514 0
-680 514 0
-681 514 0
-682 514 0
-683 514 0
-684 514 0
-685 514 0
-686 514 0
-687 514 0
-688 514 0
-689 514 0
-690 514 0
-691 514 0
-692 514 0
-693 514 0
-694 514 0
-695 514 0
-696 514 0
-697 514 0
-698 514 0
-699 514 0
-700 514 0
-701 514 0
-702 514 0
-703 514 0
-704 514 0
-705 514 0
-706 514 0
-707 514 0
-708 514 0
-709 514 0
-710 514 0
-711 514 0
-712 514 0
-713 514 0
-714 514 0
-715 514 0
-716 514 0
-717 514 0
-718 514 0
-719 514 0
-720 514 0
-721 514 0
-722 514 0
-723 514 0
-724 514 0
-725 514 0
-726 514 0
-727 514 0
-728 514 0
-729 514 0
-730 514 0
-731 514 0
-732 514 0
-733 514 0
-734 514 0
-735 514 0
-736 514 0
-737 514 0
-738 514 0
-739 514 0
-740 514 0
-741 514 0
-742 514 0
-743 514 0
-744 514 0
-745 514 0
-746 514 0
-747 514 0
-748 514 0
-749 514 0
-750 514 0
-751 514 0
-752 514 0
-753 514 0
-754 514 0
-755 514 0
-756 514 0
-757 514 0
-758 514 0
-759 514 0
-760 514 0
-761 514 0
-762 514 0
-763 514 0
-764 514 0
-765 514 0
-766 514 0
-767 514 0
-768 514 0
-769 514 0
-770 514 0
-771 514 0
-772 514 0
-773 514 0
-774 514 0
-775 1 0
-775 385 0
-1 -385 775 0
-776 2 0
-776 386 0
-2 -386 776 0
-777 3 0
-777 387 0
-3 -387 777 0
-778 4 0
-778 388 0
-4 -388 778 0
-779 5 0
-779 389 0
-5 -389 779 0
-780 6 0
-780 390 0
-6 -390 780 0
-781 7 0
-781 391 0
-7 -391 781 0
-782 8 0
-782 392 0
-8 -392 782 0
-783 9 0
-783 393 0
-9 -393 783 0
-784 10 0
-784 394 0
-10 -394 784 0
-785 11 0
-785 395 0
-11 -395 785 0
-786 12 0
-786 396 0
-12 -396 786 0
-787 13 0
-787 397 0
-13 -397 787 0
-788 14 0
-788 398 0
-14 -398 788 0
-789 15 0
-789 399 0
-15 -399 789 0
-790 16 0
-790 400 0
-16 -400 790 0
-791 17 0
-791 401 0
-17 -401 791 0
-792 18 0
-792 402 0
-18 -402 792 0
-793 19 0
-793 403 0
-19 -403 793 0
-794 20 0
-794 404 0
-20 -404 794 0
-795 21 0
-795 405 0
-21 -405 795 0
-796 22 0
-796 406 0
-22 -406 796 0
-797 23 0
-797 407 0
-23 -407 797 0
-798 24 0
-798 408 0
-24 -408 798 0
-799 25 0
-799 409 0
-25 -409 799 0
-800 26 0
-800 410 0
-26 -410 800 0
-801 27 0
-801 411 0
-27 -411 801 0
-802 28 0
-802 412 0
-28 -412 802 0
-803 29 0
-803 413 0
-29 -413 803 0
-804 30 0
-804 414 0
-30 -414 804 0
-805 31 0
-805 415 0
-31 -415 805 0
-806 32 0
-806 416 0
-32 -416 806 0
-807 33 0
-807 417 0
-33 -417 807 0
-808 34 0
-808 418 0
-34 -418 808 0
-809 35 0
-809 419 0
-35 -419 809 0
-810 36 0
-810 420 0
-36 -420 810 0
-811 37 0
-811 421 0
-37 -421 811 0
-812 38 0
-812 422 0
-38 -422 812 0
-813 39 0
-813 423 0
-39 -423 813 0
-814 40 0
-814 424 0
-40 -424 814 0
-815 41 0
-815 425 0
-41 -425 815 0
-816 42 0
-816 426 0
-42 -426 816 0
-817 43 0
-817 427 0
-43 -427 817 0
-818 44 0
-818 428 0
-44 -428 818 0
-819 45 0
-819 429 0
-45 -429 819 0
-820 46 0
-820 430 0
-46 -430 820 0
-821 47 0
-821 431 0
-47 -431 821 0
-822 48 0
-822 432 0
-48 -432 822 0
-823 49 0
-823 433 0
-49 -433 823 0
-824 50 0
-824 434 0
-50 -434 824 0
-825 51 0
-825 435 0
-51 -435 825 0
-826 52 0
-826 436 0
-52 -436 826 0
-827 53 0
-827 437 0
-53 -437 827 0
-828 54 0
-828 438 0
-54 -438 828 0
-829 55 0
-829 439 0
-55 -439 829 0
-830 56 0
-830 440 0
-56 -440 830 0
-831 57 0
-831 441 0
-57 -441 831 0
-832 58 0
-832 442 0
-58 -442 832 0
-833 59 0
-833 443 0
-59 -443 833 0
-834 60 0
-834 444 0
-60 -444 834 0
-835 61 0
-835 445 0
-61 -445 835 0
-836 62 0
-836 446 0
-62 -446 836 0
-837 63 0
-837 447 0
-63 -447 837 0
-838 64 0
-838 448 0
-64 -448 838 0
-839 65 0
-839 449 0
-65 -449 839 0
-840 66 0
-840 450 0
-66 -450 840 0
-841 67 0
-841 451 0
-67 -451 841 0
-842 68 0
-842 452 0
-68 -452 842 0
-843 69 0
-843 453 0
-69 -453 843 0
-844 70 0
-844 454 0
-70 -454 844 0
-845 71 0
-845 455 0
-71 -455 845 0
-846 72 0
-846 456 0
-72 -456 846 0
-847 73 0
-847 457 0
-73 -457 847 0
-848 74 0
-848 458 0
-74 -458 848 0
-849 75 0
-849 459 0
-75 -459 849 0
-850 76 0
-850 460 0
-76 -460 850 0
-851 77 0
-851 461 0
-77 -461 851 0
-852 78 0
-852 462 0
-78 -462 852 0
-853 79 0
-853 463 0
-79 -463 853 0
-854 80 0
-854 464 0
-80 -464 854 0
-855 81 0
-855 465 0
-81 -465 855 0
-856 82 0
-856 466 0
-82 -466 856 0
-857 83 0
-857 467 0
-83 -467 857 0
-858 84 0
-858 468 0
-84 -468 858 0
-859 85 0
-859 469 0
-85 -469 859 0
-860 86 0
-860 470 0
-86 -470 860 0
-861 87 0
-861 471 0
-87 -471 861 0
-862 88 0
-862 472 0
-88 -472 862 0
-863 89 0
-863 473 0
-89 -473 863 0
-864 90 0
-864 474 0
-90 -474 864 0
-865 91 0
-865 475 0
-91 -475 865 0
-866 92 0
-866 476 0
-92 -476 866 0
-867 93 0
-867 477 0
-93 -477 867 0
-868 94 0
-868 478 0
-94 -478 868 0
-869 95 0
-869 479 0
-95 -479 869 0
-870 96 0
-870 480 0
-96 -480 870 0
-871 97 0
-871 481 0
-97 -481 871 0
-872 98 0
-872 482 0
-98 -482 872 0
-873 99 0
-873 483 0
-99 -483 873 0
-874 100 0
-874 484 0
-100 -484 874 0
-875 101 0
-875 485 0
-101 -485 875 0
-876 102 0
-876 486 0
-102 -486 876 0
-877 103 0
-877 487 0
-103 -487 877 0
-878 104 0
-878 488 0
-104 -488 878 0
-879 105 0
-879 489 0
-105 -489 879 0
-880 106 0
-880 490 0
-106 -490 880 0
-881 107 0
-881 491 0
-107 -491 881 0
-882 108 0
-882 492 0
-108 -492 882 0
-883 109 0
-883 493 0
-109 -493 883 0
-884 110 0
-884 494 0
-110 -494 884 0
-885 111 0
-885 495 0
-111 -495 885 0
-886 112 0
-886 496 0
-112 -496 886 0
-887 113 0
-887 497 0
-113 -497 887 0
-888 114 0
-888 498 0
-114 -498 888 0
-889 115 0
-889 499 0
-115 -499 889 0
-890 116 0
-890 500 0
-116 -500 890 0
-891 117 0
-891 501 0
-117 -501 891 0
-892 118 0
-892 502 0
-118 -502 892 0
-893 119 0
-893 503 0
-119 -503 893 0
-894 120 0
-894 504 0
-120 -504 894 0
-895 121 0
-895 505 0
-121 -505 895 0
-896 122 0
-896 506 0
-122 -506 896 0
-897 123 0
-897 507 0
-123 -507 897 0
-898 124 0
-898 508 0
-124 -508 898 0
-899 125 0
-899 509 0
-125 -509 899 0
-900 126 0
-900 510 0
-126 -510 900 0
-901 127 0
-901 511 0
-127 -511 901 0
-902 128 0
-902 512 0
-128 -512 902 0
-515 775 776 777 778 779 780 781 782 783 784 785 786 787 788 789 790 791 792 793 794 795 796 797 798 799 800 801 802 803 804 805 806 807 808 809 810 811 812 813 814 815 816 817 818 819 820 821 822 823 824 825 826 827 828 829 830 831 832 833 834 835 836 837 838 839 840 841 842 843 844 845 846 847 848 849 850 851 852 853 854 855 856 857 858 859 860 861 862 863 864 865 866 867 868 869 870 871 872 873 874 875 876 877 878 879 880 881 882 883 884 885 886 887 888 889 890 891 892 893 894 895 896 897 898 899 900 901 902 0
-775 515 0
-776 515 0
-777 515 0
-778 515 0
-779 515 0
-780 515 0
-781 515 0
-782 515 0
-783 515 0
-784 515 0
-785 515 0
-786 515 0
-787 515 0
-788 515 0
-789 515 0
-790 515 0
-791 515 0
-792 515 0
-793 515 0
-794 515 0
-795 515 0
-796 515 0
-797 515 0
-798 515 0
-799 515 0
-800 515 0
-801 515 0
-802 515 0
-803 515 0
-804 515 0
-805 515 0
-806 515 0
-807 515 0
-808 515 0
-809 515 0
-810 515 0
-811 515 0
-812 515 0
-813 515 0
-814 515 0
-815 515 0
-816 515 0
-817 515 0
-818 515 0
-819 515 0
-820 515 0
-821 515 0
-822 515 0
-823 515 0
-824 515 0
-825 515 0
-826 515 0
-827 515 0
-828 515 0
-829 515 0
-830 515 0
-831 515 0
-832 515 0
-833 515 0
-834 515 0
-835 515 0
-836 515 0
-837 515 0
-838 515 0
-839 515 0
-840 515 0
-841 515 0
-842 515 0
-843 515 0
-844 515 0
-845 515 0
-846 515 0
-847 515 0
-848 515 0
-849 515 0
-850 515 0
-851 515 0
-852 515 0
-853 515 0
-854 515 0
-855 515 0
-856 515 0
-857 515 0
-858 515 0
-859 515 0
-860 515 0
-861 515 0
-862 515 0
-863 515 0
-864 515 0
-865 515 0
-866 515 0
-867 515 0
-868 515 0
-869 515 0
-870 515 0
-871 515 0
-872 515 0
-873 515 0
-874 515 0
-875 515 0
-876 515 0
-877 515 0
-878 515 0
-879 515 0
-880 515 0
-881 515 0
-882 515 0
-883 515 0
-884 515 0
-885 515 0
-886 515 0
-887 515 0
-888 515 0
-889 515 0
-890 515 0
-891 515 0
-892 515 0
-893 515 0
-894 515 0
-895 515 0
-896 515 0
-897 515 0
-898 515 0
-899 515 0
-900 515 0
-901 515 0
-902 515 0
-903 129 0
-903 257 0
-129 -257 903 0
-904 130 0
-904 258 0
-130 -258 904 0
-905 131 0
-905 259 0
-131 -259 905 0
-906 132 0
-906 260 0
-132 -260 906 0
-907 133 0
-907 261 0
-133 -261 907 0
-908 134 0
-908 262 0
-134 -262 908 0
-909 135 0
-909 263 0
-135 -263 909 0
-910 136 0
-910 264 0
-136 -264 910 0
-911 137 0
-911 265 0
-137 -265 911 0
-912 138 0
-912 266 0
-138 -266 912 0
-913 139 0
-913 267 0
-139 -267 913 0
-914 140 0
-914 268 0
-140 -268 914 0
-915 141 0
-915 269 0
-141 -269 915 0
-916 142 0
-916 270 0
-142 -270 916 0
-917 143 0
-917 271 0
-143 -271 917 0
-918 144 0
-918 272 0
-144 -272 918 0
-919 145 0
-919 273 0
-145 -273 919 0
-920 146 0
-920 274 0
-146 -274 920 0
-921 147 0
-921 275 0
-147 -275 921 0
-922 148 0
-922 276 0
-148 -276 922 0
-923 149 0
-923 277 0
-149 -277 923 0
-924 150 0
-924 278 0
-150 -278 924 0
-925 151 0
-925 279 0
-151 -279 925 0
-926 152 0
-926 280 0
-152 -280 926 0
-927 153 0
-927 281 0
-153 -281 927 0
-928 154 0
-928 282 0
-154 -282 928 0
-929 155 0
-929 283 0
-155 -283 929 0
-930 156 0
-930 284 0
-156 -284 930 0
-931 157 0
-931 285 0
-157 -285 931 0
-932 158 0
-932 286 0
-158 -286 932 0
-933 159 0
-933 287 0
-159 -287 933 0
-934 160 0
-934 288 0
-160 -288 934 0
-935 161 0
-935 289 0
-161 -289 935 0
-936 162 0
-936 290 0
-162 -290 936 0
-937 163 0
-937 291 0
-163 -291 937 0
-938 164 0
-938 292 0
-164 -292 938 0
-939 165 0
-939 293 0
-165 -293 939 0
-940 166 0
-940 294 0
-166 -294 940 0
-941 167 0
-941 295 0
-167 -295 941 0
-942 168 0
-942 296 0
-168 -296 942 0
-943 169 0
-943 297 0
-169 -297 943 0
-944 170 0
-944 298 0
-170 -298 944 0
-945 171 0
-945 299 0
-171 -299 945 0
-946 172 0
-946 300 0
-172 -300 946 0
-947 173 0
-947 301 0
-173 -301 947 0
-948 174 0
-948 302 0
-174 -302 948 0
-949 175 0
-949 303 0
-175 -303 949 0
-950 176 0
-950 304 0
-176 -304 950 0
-951 177 0
-951 305 0
-177 -305 951 0
-952 178 0
-952 306 0
-178 -306 952 0
-953 179 0
-953 307 0
-179 -307 953 0
-954 180 0
-954 308 0
-180 -308 954 0
-955 181 0
-955 309 0
-181 -309 955 0
-956 182 0
-956 310 0
-182 -310 956 0
-957 183 0
-957 311 0
-183 -311 957 0
-958 184 0
-958 312 0
-184 -312 958 0
-959 185 0
-959 313 0
-185 -313 959 0
-960 186 0
-960 314 0
-186 -314 960 0
-961 187 0
-961 315 0
-187 -315 961 0
-962 188 0
-962 316 0
-188 -316 962 0
-963 189 0
-963 317 0
-189 -317 963 0
-964 190 0
-964 318 0
-190 -318 964 0
-965 191 0
-965 319 0
-191 -319 965 0
-966 192 0
-966 320 0
-192 -320 966 0
-967 193 0
-967 321 0
-193 -321 967 0
-968 194 0
-968 322 0
-194 -322 968 0
-969 195 0
-969 323 0
-195 -323 969 0
-970 196 0
-970 324 0
-196 -324 970 0
-971 197 0
-971 325 0
-197 -325 971 0
-972 198 0
-972 326 0
-198 -326 972 0
-973 199 0
-973 327 0
-199 -327 973 0
-974 200 0
-974 328 0
-200 -328 974 0
-975 201 0
-975 329 0
-201 -329 975 0
-976 202 0
-976 330 0
-202 -330 976 0
-977 203 0
-977 331 0
-203 -331 977 0
-978 204 0
-978 332 0
-204 -332 978 0
-979 205 0
-979 333 0
-205 -333 979 0
-980 206 0
-980 334 0
-206 -334 980 0
-981 207 0
-981 335 0
-207 -335 981 0
-982 208 0
-982 336 0
-208 -336 982 0
-983 209 0
-983 337 0
-209 -337 983 0
-984 210 0
-984 338 0
-210 -338 984 0
-985 211 0
-985 339 0
-211 -339 985 0
-986 212 0
-986 340 0
-212 -340 986 0
-987 213 0
-987 341 0
-213 -341 987 0
-988 214 0
-988 342 0
-214 -342 988 0
-989 215 0
-989 343 0
-215 -343 989 0
-990 216 0
-990 344 0
-216 -344 990 0
-991 217 0
-991 345 0
-217 -345 991 0
-992 218 0
-992 346 0
-218 -346 992 0
-993 219 0
-993 347 0
-219 -347 993 0
-994 220 0
-994 348 0
-220 -348 994 0
-995 221 0
-995 349 0
-221 -349 995 0
-996 222 0
-996 350 0
-222 -350 996 0
-997 223 0
-997 351 0
-223 -351 997 0
-998 224 0
-998 352 0
-224 -352 998 0
-999 225 0
-999 353 0
-225 -353 999 0
-1000 226 0
-1000 354 0
-226 -354 1000 0
-1001 227 0
-1001 355 0
-227 -355 1001 0
-1002 228 0
-1002 356 0
-228 -356 1002 0
-1003 229 0
-1003 357 0
-229 -357 1003 0
-1004 230 0
-1004 358 0
-230 -358 1004 0
-1005 231 0
-1005 359 0
-231 -359 1005 0
-1006 232 0
-1006 360 0
-232 -360 1006 0
-1007 233 0
-1007 361 0
-233 -361 1007 0
-1008 234 0
-1008 362 0
-234 -362 1008 0
-1009 235 0
-1009 363 0
-235 -363 1009 0
-1010 236 0
-1010 364 0
-236 -364 1010 0
-1011 237 0
-1011 365 0
-237 -365 1011 0
-1012 238 0
-1012 366 0
-238 -366 1012 0
-1013 239 0
-1013 367 0
-239 -367 1013 0
-1014 240 0
-1014 368 0
-240 -368 1014 0
-1015 241 0
-1015 369 0
-241 -369 1015 0
-1016 242 0
-1016 370 0
-242 -370 1016 0
-1017 243 0
-1017 371 0
-243 -371 1017 0
-1018 244 0
-1018 372 0
-244 -372 1018 0
-1019 245 0
-1019 373 0
-245 -373 1019 0
-1020 246 0
-1020 374 0
-246 -374 1020 0
-1021 247 0
-1021 375 0
-247 -375 1021 0
-1022 248 0
-1022 376 0
-248 -376 1022 0
-1023 249 0
-1023 377 0
-249 -377 1023 0
-1024 250 0
-1024 378 0
-250 -378 1024 0
-1025 251 0
-1025 379 0
-251 -379 1025 0
-1026 252 0
-1026 380 0
-252 -380 1026 0
-1027 253 0
-1027 381 0
-253 -381 1027 0
-1028 254 0
-1028 382 0
-254 -382 1028 0
-1029 255 0
-1029 383 0
-255 -383 1029 0
-1030 256 0
-1030 384 0
-256 -384 1030 0
-516 903 904 905 906 907 908 909 910 911 912 913 914 915 916 917 918 919 920 921 922 923 924 925 926 927 928 929 930 931 932 933 934 935 936 937 938 939 940 941 942 943 944 945 946 947 948 949 950 951 952 953 954 955 956 957 958 959 960 961 962 963 964 965 966 967 968 969 970 971 972 973 974 975 976 977 978 979 980 981 982 983 984 985 986 987 988 989 990 991 992 993 994 995 996 997 998 999 1000 1001 1002 1003 1004 1005 1006 1007 1008 1009 1010 1011 1012 1013 1014 1015 1016 1017 1018 1019 1020 1021 1022 1023 1024 1025 1026 1027 1028 1029 1030 0
-903 516 0
-904 516 0
-905 516 0
-906 516 0
-907 516 0
-908 516 0
-909 516 0
-910 516 0
-911 516 0
-912 516 0
-913 516 0
-914 516 0
-915 516 0
-916 516 0
-917 516 0
-918 516 0
-919 516 0
-920 516 0
-921 516 0
-922 516 0
-923 516 0
-924 516 0
-925 516 0
-926 516 0
-927 516 0
-928 516 0
-929 516 0
-930 516 0
-931 516 0
-932 516 0
-933 516 0
-934 516 0
-935 516 0
-936 516 0
-937 516 0
-938 516 0
-939 516 0
-940 516 0
-941 516 0
-942 516 0
-943 516 0
-944 516 0
-945 516 0
-946 516 0
-947 516 0
-948 516 0
-949 516 0
-950 516 0
-951 516 0
-952 516 0
-953 516 0
-954 516 0
-955 516 0
-956 516 0
-957 516 0
-958 516 0
-959 516 0
-960 516 0
-961 516 0
-962 516 0
-963 516 0
-964 516 0
-965 516 0
-966 516 0
-967 516 0
-968 516 0
-969 516 0
-970 516 0
-971 516 0
-972 516 0
-973 516 0
-974 516 0
-975 516 0
-976 516 0
-977 516 0
-978 516 0
-979 516 0
-980 516 0
-981 516 0
-982 516 0
-983 516 0
-984 516 0
-985 516 0
-986 516 0
-987 516 0
-988 516 0
-989 516 0
-990 516 0
-991 516 0
-992 516 0
-993 516 0
-994 516 0
-995 516 0
-996 516 0
-997 516 0
-998 516 0
-999 516 0
-1000 516 0
-1001 516 0
-1002 516 0
-1003 516 0
-1004 516 0
-1005 516 0
-1006 516 0
-1007 516 0
-1008 516 0
-1009 516 0
-1010 516 0
-1011 516 0
-1012 516 0
-1013 516 0
-1014 516 0
-1015 516 0
-1016 516 0
-1017 516 0
-1018 516 0
-1019 516 0
-1020 516 0
-1021 516 0
-1022 516 0
-1023 516 0
-1024 516 0
-1025 516 0
-1026 516 0
-1027 516 0
-1028 516 0
-1029 516 0
-1030 516 0
-1031 129 0
-1031 385 0
-129 -385 1031 0
-1032 130 0
-1032 386 0
-130 -386 1032 0
-1033 131 0
-1033 387 0
-131 -387 1033 0
-1034 132 0
-1034 388 0
-132 -388 1034 0
-1035 133 0
-1035 389 0
-133 -389 1035 0
-1036 134 0
-1036 390 0
-134 -390 1036 0
-1037 135 0
-1037 391 0
-135 -391 1037 0
-1038 136 0
-1038 392 0
-136 -392 1038 0
-1039 137 0
-1039 393 0
-137 -393 1039 0
-1040 138 0
-1040 394 0
-138 -394 1040 0
-1041 139 0
-1041 395 0
-139 -395 1041 0
-1042 140 0
-1042 396 0
-140 -396 1042 0
-1043 141 0
-1043 397 0
-141 -397 1043 0
-1044 142 0
-1044 398 0
-142 -398 1044 0
-1045 143 0
-1045 399 0
-143 -399 1045 0
-1046 144 0
-1046 400 0
-144 -400 1046 0
-1047 145 0
-1047 401 0
-145 -401 1047 0
-1048 146 0
-1048 402 0
-146 -402 1048 0
-1049 147 0
-1049 403 0
-147 -403 1049 0
-1050 148 0
-1050 404 0
-148 -404 1050 0
-1051 149 0
-1051 405 0
-149 -405 1051 0
-1052 150 0
-1052 406 0
-150 -406 1052 0
-1053 151 0
-1053 407 0
-151 -407 1053 0
-1054 152 0
-1054 408 0
-152 -408 1054 0
-1055 153 0
-1055 409 0
-153 -409 1055 0
-1056 154 0
-1056 410 0
-154 -410 1056 0
-1057 155 0
-1057 411 0
-155 -411 1057 0
-1058 156 0
-1058 412 0
-156 -412 1058 0
-1059 157 0
-1059 413 0
-157 -413 1059 0
-1060 158 0
-1060 414 0
-158 -414 1060 0
-1061 159 0
-1061 415 0
-159 -415 1061 0
-1062 160 0
-1062 416 0
-160 -416 1062 0
-1063 161 0
-1063 417 0
-161 -417 1063 0
-1064 162 0
-1064 418 0
-162 -418 1064 0
-1065 163 0
-1065 419 0
-163 -419 1065 0
-1066 164 0
-1066 420 0
-164 -420 1066 0
-1067 165 0
-1067 421 0
-165 -421 1067 0
-1068 166 0
-1068 422 0
-166 -422 1068 0
-1069 167 0
-1069 423 0
-167 -423 1069 0
-1070 168 0
-1070 424 0
-168 -424 1070 0
-1071 169 0
-1071 425 0
-169 -425 1071 0
-1072 170 0
-1072 426 0
-170 -426 1072 0
-1073 171 0
-1073 427 0
-171 -427 1073 0
-1074 172 0
-1074 428 0
-172 -428 1074 0
-1075 173 0
-1075 429 0
-173 -429 1075 0
-1076 174 0
-1076 430 0
-174 -430 1076 0
-1077 175 0
-1077 431 0
-175 -431 1077 0
-1078 176 0
-1078 432 0
-176 -432 1078 0
-1079 177 0
-1079 433 0
-177 -433 1079 0
-1080 178 0
-1080 434 0
-178 -434 1080 0
-1081 179 0
-1081 435 0
-179 -435 1081 0
-1082 180 0
-1082 436 0
-180 -436 1082 0
-1083 181 0
-1083 437 0
-181 -437 1083 0
-1084 182 0
-1084 438 0
-182 -438 1084 0
-1085 183 0
-1085 439 0
-183 -439 1085 0
-1086 184 0
-1086 440 0
-184 -440 1086 0
-1087 185 0
-1087 441 0
-185 -441 1087 0
-1088 186 0
-1088 442 0
-186 -442 1088 0
-1089 187 0
-1089 443 0
-187 -443 1089 0
-1090 188 0
-1090 444 0
-188 -444 1090 0
-1091 189 0
-1091 445 0
-189 -445 1091 0
-1092 190 0
-1092 446 0
-190 -446 1092 0
-1093 191 0
-1093 447 0
-191 -447 1093 0
-1094 192 0
-1094 448 0
-192 -448 1094 0
-1095 193 0
-1095 449 0
-193 -449 1095 0
-1096 194 0
-1096 450 0
-194 -450 1096 0
-1097 195 0
-1097 451 0
-195 -451 1097 0
-1098 196 0
-1098 452 0
-196 -452 1098 0
-1099 197 0
-1099 453 0
-197 -453 1099 0
-1100 198 0
-1100 454 0
-198 -454 1100 0
-1101 199 0
-1101 455 0
-199 -455 1101 0
-1102 200 0
-1102 456 0
-200 -456 1102 0
-1103 201 0
-1103 457 0
-201 -457 1103 0
-1104 202 0
-1104 458 0
-202 -458 1104 0
-1105 203 0
-1105 459 0
-203 -459 1105 0
-1106 204 0
-1106 460 0
-204 -460 1106 0
-1107 205 0
-1107 461 0
-205 -461 1107 0
-1108 206 0
-1108 462 0
-206 -462 1108 0
-1109 207 0
-1109 463 0
-207 -463 1109 0
-1110 208 0
-1110 464 0
-208 -464 1110 0
-1111 209 0
-1111 465 0
-209 -465 1111 0
-1112 210 0
-1112 466 0
-210 -466 1112 0
-1113 211 0
-1113 467 0
-211 -467 1113 0
-1114 212 0
-1114 468 0
-212 -468 1114 0
-1115 213 0
-1115 469 0
-213 -469 1115 0
-1116 214 0
-1116 470 0
-214 -470 1116 0
-1117 215 0
-1117 471 0
-215 -471 1117 0
-1118 216 0
-1118 472 0
-216 -472 1118 0
-1119 217 0
-1119 473 0
-217 -473 1119 0
-1120 218 0
-1120 474 0
-218 -474 1120 0
-1121 219 0
-1121 475 0
-219 -475 1121 0
-1122 220 0
-1122 476 0
-220 -476 1122 0
-1123 221 0
-1123 477 0
-221 -477 1123 0
-1124 222 0
-1124 478 0
-222 -478 1124 0
-1125 223 0
-1125 479 0
-223 -479 1125 0
-1126 224 0
-1126 480 0
-224 -480 1126 0
-1127 225 0
-1127 481 0
-225 -481 1127 0
-1128 226 0
-1128 482 0
-226 -482 1128 0
-1129 227 0
-1129 483 0
-227 -483 1129 0
-1130 228 0
-1130 484 0
-228 -484 1130 0
-1131 229 0
-1131 485 0
-229 -485 1131 0
-1132 230 0
-1132 486 0
-230 -486 1132 0
-1133 231 0
-1133 487 0
-231 -487 1133 0
-1134 232 0
-1134 488 0
-232 -488 1134 0
-1135 233 0
-1135 489 0
-233 -489 1135 0
-1136 234 0
-1136 490 0
-234 -490 1136 0
-1137 235 0
-1137 491 0
-235 -491 1137 0
-1138 236 0
-1138 492 0
-236 -492 1138 0
-1139 237 0
-1139 493 0
-237 -493 1139 0
-1140 238 0
-1140 494 0
-238 -494 1140 0
-1141 239 0
-1141 495 0
-239 -495 1141 0
-1142 240 0
-1142 496 0
-240 -496 1142 0
-1143 241 0
-1143 497 0
-241 -497 1143 0
-1144 242 0
-1144 498 0
-242 -498 1144 0
-1145 243 0
-1145 499 0
-243 -499 1145 0
-1146 244 0
-1146 500 0
-244 -500 1146 0
-1147 245 0
-1147 501 0
-245 -501 1147 0
-1148 246 0
-1148 502 0
-246 -502 1148 0
-1149 247 0
-1149 503 0
-247 -503 1149 0
-1150 248 0
-1150 504 0
-248 -504 1150 0
-1151 249 0
-1151 505 0
-249 -505 1151 0
-1152 250 0
-1152 506 0
-250 -506 1152 0
-1153 251 0
-1153 507 0
-251 -507 1153 0
-1154 252 0
-1154 508 0
-252 -508 1154 0
-1155 253 0
-1155 509 0
-253 -509 1155 0
-1156 254 0
-1156 510 0
-254 -510 1156 0
-1157 255 0
-1157 511 0
-255 -511 1157 0
-1158 256 0
-1158 512 0
-256 -512 1158 0
-517 1031 1032 1033 1034 1035 1036 1037 1038 1039 1040 1041 1042 1043 1044 1045 1046 1047 1048 1049 1050 1051 1052 1053 1054 1055 1056 1057 1058 1059 1060 1061 1062 1063 1064 1065 1066 1067 1068 1069 1070 1071 1072 1073 1074 1075 1076 1077 1078 1079 1080 1081 1082 1083 1084 1085 1086 1087 1088 1089 1090 1091 1092 1093 1094 1095 1096 1097 1098 1099 1100 1101 1102 1103 1104 1105 1106 1107 1108 1109 1110 1111 1112 1113 1114 1115 1116 1117 1118 1119 1120 1121 1122 1123 1124 1125 1126 1127 1128 1129 1130 1131 1132 1133 1134 1135 1136 1137 1138 1139 1140 1141 1142 1143 1144 1145 1146 1147 1148 1149 1150 1151 1152 1153 1154 1155 1156 1157 1158 0
-1031 517 0
-1032 517 0
-1033 517 0
-1034 517 0
-1035 517 0
-1036 517 0
-1037 517 0
-1038 517 0
-1039 517 0
-1040 517 0
-1041 517 0
-1042 517 0
-1043 517 0
-1044 517 0
-1045 517 0
-1046 517 0
-1047 517 0
-1048 517 0
-1049 517 0
-1050 517 0
-1051 517 0
-1052 517 0
-1053 517 0
-1054 517 0
-1055 517 0
-1056 517 0
-1057 517 0
-1058 517 0
-1059 517 0
-1060 517 0
-1061 517 0
-1062 517 0
-1063 517 0
-1064 517 0
-1065 517 0
-1066 517 0
-1067 517 0
-1068 517 0
-1069 517 0
-1070 517 0
-1071 517 0
-1072 517 0
-1073 517 0
-1074 517 0
-1075 517 0
-1076 517 0
-1077 517 0
-1078 517 0
-1079 517 0
-1080 517 0
-1081 517 0
-1082 517 0
-1083 517 0
-1084 517 0
-1085 517 0
-1086 517 0
-1087 517 0
-1088 517 0
-1089 517 0
-1090 517 0
-1091 517 0
-1092 517 0
-1093 517 0
-1094 517 0
-1095 517 0
-1096 517 0
-1097 517 0
-1098 517 0
-1099 517 0
-1100 517 0
-1101 517 0
-1102 517 0
-1103 517 0
-1104 517 0
-1105 517 0
-1106 517 0
-1107 517 0
-1108 517 0
-1109 517 0
-1110 517 0
-1111 517 0
-1112 517 0
-1113 517 0
-1114 517 0
-1115 517 0
-1116 517 0
-1117 517 0
-1118 517 0
-1119 517 0
-1120 517 0
-1121 517 0
-1122 517 0
-1123 517 0
-1124 517 0
-1125 517 0
-1126 517 0
-1127 517 0
-1128 517 0
-1129 517 0
-1130 517 0
-1131 517 0
-1132 517 0
-1133 517 0
-1134 517 0
-1135 517 0
-1136 517 0
-1137 517 0
-1138 517 0
-1139 517 0
-1140 517 0
-1141 517 0
-1142 517 0
-1143 517 0
-1144 517 0
-1145 517 0
-1146 517 0
-1147 517 0
-1148 517 0
-1149 517 0
-1150 517 0
-1151 517 0
-1152 517 0
-1153 517 0
-1154 517 0
-1155 517 0
-1156 517 0
-1157 517 0
-1158 517 0
-1159 257 0
-1159 385 0
-257 -385 1159 0
-1160 258 0
-1160 386 0
-258 -386 1160 0
-1161 259 0
-1161 387 0
-259 -387 1161 0
-1162 260 0
-1162 388 0
-260 -388 1162 0
-1163 261 0
-1163 389 0
-261 -389 1163 0
-1164 262 0
-1164 390 0
-262 -390 1164 0
-1165 263 0
-1165 391 0
-263 -391 1165 0
-1166 264 0
-1166 392 0
-264 -392 1166 0
-1167 265 0
-1167 393 0
-265 -393 1167 0
-1168 266 0
-1168 394 0
-266 -394 1168 0
-1169 267 0
-1169 395 0
-267 -395 1169 0
-1170 268 0
-1170 396 0
-268 -396 1170 0
-1171 269 0
-1171 397 0
-269 -397 1171 0
-1172 270 0
-1172 398 0
-270 -398 1172 0
-1173 271 0
-1173 399 0
-271 -399 1173 0
-1174 272 0
-1174 400 0
-272 -400 1174 0
-1175 273 0
-1175 401 0
-273 -401 1175 0
-1176 274 0
-1176 402 0
-274 -402 1176 0
-1177 275 0
-1177 403 0
-275 -403 1177 0
-1178 276 0
-1178 404 0
-276 -404 1178 0
-1179 277 0
-1179 405 0
-277 -405 1179 0
-1180 278 0
-1180 406 0
-278 -406 1180 0
-1181 279 0
-1181 407 0
-279 -407 1181 0
-1182 280 0
-1182 408 0
-280 -408 1182 0
-1183 281 0
-1183 409 0
-281 -409 1183 0
-1184 282 0
-1184 410 0
-282 -410 1184 0
-1185 283 0
-1185 411 0
-283 -411 1185 0
-1186 284 0
-1186 412 0
-284 -412 1186 0
-1187 285 0
-1187 413 0
-285 -413 1187 0
-1188 286 0
-1188 414 0
-286 -414 1188 0
-1189 287 0
-1189 415 0
-287 -415 1189 0
-1190 288 0
-1190 416 0
-288 -416 1190 0
-1191 289 0
-1191 417 0
-289 -417 1191 0
-1192 290 0
-1192 418 0
-290 -418 1192 0
-1193 291 0
-1193 419 0
-291 -419 1193 0
-1194 292 0
-1194 420 0
-292 -420 1194 0
-1195 293 0
-1195 421 0
-293 -421 1195 0
-1196 294 0
-1196 422 0
-294 -422 1196 0
-1197 295 0
-1197 423 0
-295 -423 1197 0
-1198 296 0
-1198 424 0
-296 -424 1198 0
-1199 297 0
-1199 425 0
-297 -425 1199 0
-1200 298 0
-1200 426 0
-298 -426 1200 0
-1201 299 0
-1201 427 0
-299 -427 1201 0
-1202 300 0
-1202 428 0
-300 -428 1202 0
-1203 301 0
-1203 429 0
-301 -429 1203 0
-1204 302 0
-1204 430 0
-302 -430 1204 0
-1205 303 0
-1205 431 0
-303 -431 1205 0
-1206 304 0
-1206 432 0
-304 -432 1206 0
-1207 305 0
-1207 433 0
-305 -433 1207 0
-1208 306 0
-1208 434 0
-306 -434 1208 0
-1209 307 0
-1209 435 0
-307 -435 1209 0
-1210 308 0
-1210 436 0
-308 -436 1210 0
-1211 309 0
-1211 437 0
-309 -437 1211 0
-1212 310 0
-1212 438 0
-310 -438 1212 0
-1213 311 0
-1213 439 0
-311 -439 1213 0
-1214 312 0
-1214 440 0
-312 -440 1214 0
-1215 313 0
-1215 441 0
-313 -441 1215 0
-1216 314 0
-1216 442 0
-314 -442 1216 0
-1217 315 0
-1217 443 0
-315 -443 1217 0
-1218 316 0
-1218 444 0
-316 -444 1218 0
-1219 317 0
-1219 445 0
-317 -445 1219 0
-1220 318 0
-1220 446 0
-318 -446 1220 0
-1221 319 0
-1221 447 0
-319 -447 1221 0
-1222 320 0
-1222 448 0
-320 -448 1222 0
-1223 321 0
-1223 449 0
-321 -449 1223 0
-1224 322 0
-1224 450 0
-322 -450 1224 0
-1225 323 0
-1225 451 0
-323 -451 1225 0
-1226 324 0
-1226 452 0
-324 -452 1226 0
-1227 325 0
-1227 453 0
-325 -453 1227 0
-1228 326 0
-1228 454 0
-326 -454 1228 0
-1229 327 0
-1229 455 0
-327 -455 1229 0
-1230 328 0
-1230 456 0
-328 -456 1230 0
-1231 329 0
-1231 457 0
-329 -457 1231 0
-1232 330 0
-1232 458 0
-330 -458 1232 0
-1233 331 0
-1233 459 0
-331 -459 1233 0
-1234 332 0
-1234 460 0
-332 -460 1234 0
-1235 333 0
-1235 461 0
-333 -461 1235 0
-1236 334 0
-1236 462 0
-334 -462 1236 0
-1237 335 0
-1237 463 0
-335 -463 1237 0
-1238 336 0
-1238 464 0
-336 -464 1238 0
-1239 337 0
-1239 465 0
-337 -465 1239 0
-1240 338 0
-1240 466 0
-338 -466 1240 0
-1241 339 0
-1241 467 0
-339 -467 1241 0
-1242 340 0
-1242 468 0
-340 -468 1242 0
-1243 341 0
-1243 469 0
-341 -469 1243 0
-1244 342 0
-1244 470 0
-342 -470 1244 0
-1245 343 0
-1245 471 0
-343 -471 1245 0
-1246 344 0
-1246 472 0
-344 -472 1246 0
-1247 345 0
-1247 473 0
-345 -473 1247 0
-1248 346 0
-1248 474 0
-346 -474 1248 0
-1249 347 0
-1249 475 0
-347 -475 1249 0
-1250 348 0
-1250 476 0
-348 -476 1250 0
-1251 349 0
-1251 477 0
-349 -477 1251 0
-1252 350 0
-1252 478 0
-350 -478 1252 0
-1253 351 0
-1253 479 0
-351 -479 1253 0
-1254 352 0
-1254 480 0
-352 -480 1254 0
-1255 353 0
-1255 481 0
-353 -481 1255 0
-1256 354 0
-1256 482 0
-354 -482 1256 0
-1257 355 0
-1257 483 0
-355 -483 1257 0
-1258 356 0
-1258 484 0
-356 -484 1258 0
-1259 357 0
-1259 485 0
-357 -485 1259 0
-1260 358 0
-1260 486 0
-358 -486 1260 0
-1261 359 0
-1261 487 0
-359 -487 1261 0
-1262 360 0
-1262 488 0
-360 -488 1262 0
-1263 361 0
-1263 489 0
-361 -489 1263 0
-1264 362 0
-1264 490 0
-362 -490 1264 0
-1265 363 0
-1265 491 0
-363 -491 1265 0
-1266 364 0
-1266 492 0
-364 -492 1266 0
-1267 365 0
-1267 493 0
-365 -493 1267 0
-1268 366 0
-1268 494 0
-366 -494 1268 0
-1269 367 0
-1269 495 0
-367 -495 1269 0
-1270 368 0
-1270 496 0
-368 -496 1270 0
-1271 369 0
-1271 497 0
-369 -497 1271 0
-1272 370 0
-1272 498 0
-370 -498 1272 0
-1273 371 0
-1273 499 0
-371 -499 1273 0
-1274 372 0
-1274 500 0
-372 -500 1274 0
-1275 373 0
-1275 501 0
-373 -501 1275 0
-1276 374 0
-1276 502 0
-374 -502 1276 0
-1277 375 0
-1277 503 0
-375 -503 1277 0
-1278 376 0
-1278 504 0
-376 -504 1278 0
-1279 377 0
-1279 505 0
-377 -505 1279 0
-1280 378 0
-1280 506 0
-378 -506 1280 0
-1281 379 0
-1281 507 0
-379 -507 1281 0
-1282 380 0
-1282 508 0
-380 -508 1282 0
-1283 381 0
-1283 509 0
-381 -509 1283 0
-1284 382 0
-1284 510 0
-382 -510 1284 0
-1285 383 0
-1285 511 0
-383 -511 1285 0
-1286 384 0
-1286 512 0
-384 -512 1286 0
-518 1159 1160 1161 1162 1163 1164 1165 1166 1167 1168 1169 1170 1171 1172 1173 1174 1175 1176 1177 1178 1179 1180 1181 1182 1183 1184 1185 1186 1187 1188 1189 1190 1191 1192 1193 1194 1195 1196 1197 1198 1199 1200 1201 1202 1203 1204 1205 1206 1207 1208 1209 1210 1211 1212 1213 1214 1215 1216 1217 1218 1219 1220 1221 1222 1223 1224 1225 1226 1227 1228 1229 1230 1231 1232 1233 1234 1235 1236 1237 1238 1239 1240 1241 1242 1243 1244 1245 1246 1247 1248 1249 1250 1251 1252 1253 1254 1255 1256 1257 1258 1259 1260 1261 1262 1263 1264 1265 1266 1267 1268 1269 1270 1271 1272 1273 1274 1275 1276 1277 1278 1279 1280 1281 1282 1283 1284 1285 1286 0
-1159 518 0
-1160 518 0
-1161 518 0
-1162 518 0
-1163 518 0
-1164 518 0
-1165 518 0
-1166 518 0
-1167 518 0
-1168 518 0
-1169 518 0
-1170 518 0
-1171 518 0
-1172 518 0
-1173 518 0
-1174 518 0
-1175 518 0
-1176 518 0
-1177 518 0
-1178 518 0
-1179 518 0
-1180 518 0
-1181 518 0
-1182 518 0
-1183 518 0
-1184 518 0
-1185 518 0
-1186 518 0
-1187 518 0
-1188 518 0
-1189 518 0
-1190 518 0
-1191 518 0
-1192 518 0
-1193 518 0
-1194 518 0
-1195 518 0
-1196 518 0
-1197 518 0
-1198 518 0
-1199 518 0
-1200 518 0
-1201 518 0
-1202 518 0
-1203 518 0
-1204 518 0
-1205 518 0
-1206 518 0
-1207 518 0
-1208 518 0
-1209 518 0
-1210 518 0
-1211 518 0
-1212 518 0
-1213 518 0
-1214 518 0
-1215 518 0
-1216 518 0
-1217 518 0
-1218 518 0
-1219 518 0
-1220 518 0
-1221 518 0
-1222 518 0
-1223 518 0
-1224 518 0
-1225 518 0
-1226 518 0
-1227 518 0
-1228 518 0
-1229 518 0
-1230 518 0
-1231 518 0
-1232 518 0
-1233 518 0
-1234 518 0
-1235 518 0
-1236 518 0
-1237 518 0
-1238 518 0
-1239 518 0
-1240 518 0
-1241 518 0
-1242 518 0
-1243 518 0
-1244 518 0
-1245 518 0
-1246 518 0
-1247 518 0
-1248 518 0
-1249 518 0
-1250 518 0
-1251 518 0
-1252 518 0
-1253 518 0
-1254 518 0
-1255 518 0
-1256 518 0
-1257 518 0
-1258 518 0
-1259 518 0
-1260 518 0
-1261 518 0
-1262 518 0
-1263 518 0
-1264 518 0
-1265 518 0
-1266 518 0
-1267 518 0
-1268 518 0
-1269 518 0
-1270 518 0
-1271 518 0
-1272 518 0
-1273 518 0
-1274 518 0
-1275 518 0
-1276 518 0
-1277 518 0
-1278 518 0
-1279 518 0
-1280 518 0
-1281 518 0
-1282 518 0
-1283 518 0
-1284 518 0
-1285 518 0
-1286 518 0
-513 -514 -516 0
-513 -515 -517 0
-514 -515 -518 0
-516 -517 -518 0
513 514 516 0
513 515 517 0
514 515 518 0
516 517 518 0
