c Instancia SAT para Rψ(5,5) ≤ 16
c Codificación simbiótica basada en resonancia vibracional
c Frecuencia base: 141.7001 Hz - Campo QCAL ∞³
c
c Grafo: K_16 (grafo completo con 16 vértices)
c Variables booleanas (aristas): 120
c Cláusulas CNF: 8736
c
c Variable x_ij = TRUE  => arista (i,j) es ROJA (no-resonante)
c Variable x_ij = FALSE => arista (i,j) es AZUL (resonante)
c
c Objetivo: verificar si existe coloración que evita:
c   - K_5 rojo (clique rojo de tamaño 5)
c   - K_5 azul (clique azul de tamaño 5)
c
c Si UNSAT => Rψ(5,5) ≤ 16 está certificado
c Si SAT   => Existe contraejemplo (coloración válida)
c
p cnf 120 8736
-1 -2 -3 -4 -16 -17 -18 -30 -31 -43 0
-1 -2 -3 -5 -16 -17 -19 -30 -32 -44 0
-1 -2 -3 -6 -16 -17 -20 -30 -33 -45 0
-1 -2 -3 -7 -16 -17 -21 -30 -34 -46 0
-1 -2 -3 -8 -16 -17 -22 -30 -35 -47 0
-1 -2 -3 -9 -16 -17 -23 -30 -36 -48 0
-1 -2 -3 -10 -16 -17 -24 -30 -37 -49 0
-1 -2 -3 -11 -16 -17 -25 -30 -38 -50 0
-1 -2 -3 -12 -16 -17 -26 -30 -39 -51 0
-1 -2 -3 -13 -16 -17 -27 -30 -40 -52 0
-1 -2 -3 -14 -16 -17 -28 -30 -41 -53 0
-1 -2 -3 -15 -16 -17 -29 -30 -42 -54 0
-1 -2 -4 -5 -16 -18 -19 -31 -32 -55 0
-1 -2 -4 -6 -16 -18 -20 -31 -33 -56 0
-1 -2 -4 -7 -16 -18 -21 -31 -34 -57 0
-1 -2 -4 -8 -16 -18 -22 -31 -35 -58 0
-1 -2 -4 -9 -16 -18 -23 -31 -36 -59 0
-1 -2 -4 -10 -16 -18 -24 -31 -37 -60 0
-1 -2 -4 -11 -16 -18 -25 -31 -38 -61 0
-1 -2 -4 -12 -16 -18 -26 -31 -39 -62 0
-1 -2 -4 -13 -16 -18 -27 -31 -40 -63 0
-1 -2 -4 -14 -16 -18 -28 -31 -41 -64 0
-1 -2 -4 -15 -16 -18 -29 -31 -42 -65 0
-1 -2 -5 -6 -16 -19 -20 -32 -33 -66 0
-1 -2 -5 -7 -16 -19 -21 -32 -34 -67 0
-1 -2 -5 -8 -16 -19 -22 -32 -35 -68 0
-1 -2 -5 -9 -16 -19 -23 -32 -36 -69 0
-1 -2 -5 -10 -16 -19 -24 -32 -37 -70 0
-1 -2 -5 -11 -16 -19 -25 -32 -38 -71 0
-1 -2 -5 -12 -16 -19 -26 -32 -39 -72 0
-1 -2 -5 -13 -16 -19 -27 -32 -40 -73 0
-1 -2 -5 -14 -16 -19 -28 -32 -41 -74 0
-1 -2 -5 -15 -16 -19 -29 -32 -42 -75 0
-1 -2 -6 -7 -16 -20 -21 -33 -34 -76 0
-1 -2 -6 -8 -16 -20 -22 -33 -35 -77 0
-1 -2 -6 -9 -16 -20 -23 -33 -36 -78 0
-1 -2 -6 -10 -16 -20 -24 -33 -37 -79 0
-1 -2 -6 -11 -16 -20 -25 -33 -38 -80 0
-1 -2 -6 -12 -16 -20 -26 -33 -39 -81 0
-1 -2 -6 -13 -16 -20 -27 -33 -40 -82 0
-1 -2 -6 -14 -16 -20 -28 -33 -41 -83 0
-1 -2 -6 -15 -16 -20 -29 -33 -42 -84 0
-1 -2 -7 -8 -16 -21 -22 -34 -35 -85 0
-1 -2 -7 -9 -16 -21 -23 -34 -36 -86 0
-1 -2 -7 -10 -16 -21 -24 -34 -37 -87 0
-1 -2 -7 -11 -16 -21 -25 -34 -38 -88 0
-1 -2 -7 -12 -16 -21 -26 -34 -39 -89 0
-1 -2 -7 -13 -16 -21 -27 -34 -40 -90 0
-1 -2 -7 -14 -16 -21 -28 -34 -41 -91 0
-1 -2 -7 -15 -16 -21 -29 -34 -42 -92 0
-1 -2 -8 -9 -16 -22 -23 -35 -36 -93 0
-1 -2 -8 -10 -16 -22 -24 -35 -37 -94 0
-1 -2 -8 -11 -16 -22 -25 -35 -38 -95 0
-1 -2 -8 -12 -16 -22 -26 -35 -39 -96 0
-1 -2 -8 -13 -16 -22 -27 -35 -40 -97 0
-1 -2 -8 -14 -16 -22 -28 -35 -41 -98 0
-1 -2 -8 -15 -16 -22 -29 -35 -42 -99 0
-1 -2 -9 -10 -16 -23 -24 -36 -37 -100 0
-1 -2 -9 -11 -16 -23 -25 -36 -38 -101 0
-1 -2 -9 -12 -16 -23 -26 -36 -39 -102 0
-1 -2 -9 -13 -16 -23 -27 -36 -40 -103 0
-1 -2 -9 -14 -16 -23 -28 -36 -41 -104 0
-1 -2 -9 -15 -16 -23 -29 -36 -42 -105 0
-1 -2 -10 -11 -16 -24 -25 -37 -38 -106 0
-1 -2 -10 -12 -16 -24 -26 -37 -39 -107 0
-1 -2 -10 -13 -16 -24 -27 -37 -40 -108 0
-1 -2 -10 -14 -16 -24 -28 -37 -41 -109 0
-1 -2 -10 -15 -16 -24 -29 -37 -42 -110 0
-1 -2 -11 -12 -16 -25 -26 -38 -39 -111 0
-1 -2 -11 -13 -16 -25 -27 -38 -40 -112 0
-1 -2 -11 -14 -16 -25 -28 -38 -41 -113 0
-1 -2 -11 -15 -16 -25 -29 -38 -42 -114 0
-1 -2 -12 -13 -16 -26 -27 -39 -40 -115 0
-1 -2 -12 -14 -16 -26 -28 -39 -41 -116 0
-1 -2 -12 -15 -16 -26 -29 -39 -42 -117 0
-1 -2 -13 -14 -16 -27 -28 -40 -41 -118 0
-1 -2 -13 -15 -16 -27 -29 -40 -42 -119 0
-1 -2 -14 -15 -16 -28 -29 -41 -42 -120 0
-1 -3 -4 -5 -17 -18 -19 -43 -44 -55 0
-1 -3 -4 -6 -17 -18 -20 -43 -45 -56 0
-1 -3 -4 -7 -17 -18 -21 -43 -46 -57 0
-1 -3 -4 -8 -17 -18 -22 -43 -47 -58 0
-1 -3 -4 -9 -17 -18 -23 -43 -48 -59 0
-1 -3 -4 -10 -17 -18 -24 -43 -49 -60 0
-1 -3 -4 -11 -17 -18 -25 -43 -50 -61 0
-1 -3 -4 -12 -17 -18 -26 -43 -51 -62 0
-1 -3 -4 -13 -17 -18 -27 -43 -52 -63 0
-1 -3 -4 -14 -17 -18 -28 -43 -53 -64 0
-1 -3 -4 -15 -17 -18 -29 -43 -54 -65 0
-1 -3 -5 -6 -17 -19 -20 -44 -45 -66 0
-1 -3 -5 -7 -17 -19 -21 -44 -46 -67 0
-1 -3 -5 -8 -17 -19 -22 -44 -47 -68 0
-1 -3 -5 -9 -17 -19 -23 -44 -48 -69 0
-1 -3 -5 -10 -17 -19 -24 -44 -49 -70 0
-1 -3 -5 -11 -17 -19 -25 -44 -50 -71 0
-1 -3 -5 -12 -17 -19 -26 -44 -51 -72 0
-1 -3 -5 -13 -17 -19 -27 -44 -52 -73 0
-1 -3 -5 -14 -17 -19 -28 -44 -53 -74 0
-1 -3 -5 -15 -17 -19 -29 -44 -54 -75 0
-1 -3 -6 -7 -17 -20 -21 -45 -46 -76 0
-1 -3 -6 -8 -17 -20 -22 -45 -47 -77 0
-1 -3 -6 -9 -17 -20 -23 -45 -48 -78 0
-1 -3 -6 -10 -17 -20 -24 -45 -49 -79 0
-1 -3 -6 -11 -17 -20 -25 -45 -50 -80 0
-1 -3 -6 -12 -17 -20 -26 -45 -51 -81 0
-1 -3 -6 -13 -17 -20 -27 -45 -52 -82 0
-1 -3 -6 -14 -17 -20 -28 -45 -53 -83 0
-1 -3 -6 -15 -17 -20 -29 -45 -54 -84 0
-1 -3 -7 -8 -17 -21 -22 -46 -47 -85 0
-1 -3 -7 -9 -17 -21 -23 -46 -48 -86 0
-1 -3 -7 -10 -17 -21 -24 -46 -49 -87 0
-1 -3 -7 -11 -17 -21 -25 -46 -50 -88 0
-1 -3 -7 -12 -17 -21 -26 -46 -51 -89 0
-1 -3 -7 -13 -17 -21 -27 -46 -52 -90 0
-1 -3 -7 -14 -17 -21 -28 -46 -53 -91 0
-1 -3 -7 -15 -17 -21 -29 -46 -54 -92 0
-1 -3 -8 -9 -17 -22 -23 -47 -48 -93 0
-1 -3 -8 -10 -17 -22 -24 -47 -49 -94 0
-1 -3 -8 -11 -17 -22 -25 -47 -50 -95 0
-1 -3 -8 -12 -17 -22 -26 -47 -51 -96 0
-1 -3 -8 -13 -17 -22 -27 -47 -52 -97 0
-1 -3 -8 -14 -17 -22 -28 -47 -53 -98 0
-1 -3 -8 -15 -17 -22 -29 -47 -54 -99 0
-1 -3 -9 -10 -17 -23 -24 -48 -49 -100 0
-1 -3 -9 -11 -17 -23 -25 -48 -50 -101 0
-1 -3 -9 -12 -17 -23 -26 -48 -51 -102 0
-1 -3 -9 -13 -17 -23 -27 -48 -52 -103 0
-1 -3 -9 -14 -17 -23 -28 -48 -53 -104 0
-1 -3 -9 -15 -17 -23 -29 -48 -54 -105 0
-1 -3 -10 -11 -17 -24 -25 -49 -50 -106 0
-1 -3 -10 -12 -17 -24 -26 -49 -51 -107 0
-1 -3 -10 -13 -17 -24 -27 -49 -52 -108 0
-1 -3 -10 -14 -17 -24 -28 -49 -53 -109 0
-1 -3 -10 -15 -17 -24 -29 -49 -54 -110 0
-1 -3 -11 -12 -17 -25 -26 -50 -51 -111 0
-1 -3 -11 -13 -17 -25 -27 -50 -52 -112 0
-1 -3 -11 -14 -17 -25 -28 -50 -53 -113 0
-1 -3 -11 -15 -17 -25 -29 -50 -54 -114 0
-1 -3 -12 -13 -17 -26 -27 -51 -52 -115 0
-1 -3 -12 -14 -17 -26 -28 -51 -53 -116 0
-1 -3 -12 -15 -17 -26 -29 -51 -54 -117 0
-1 -3 -13 -14 -17 -27 -28 -52 -53 -118 0
-1 -3 -13 -15 -17 -27 -29 -52 -54 -119 0
-1 -3 -14 -15 -17 -28 -29 -53 -54 -120 0
-1 -4 -5 -6 -18 -19 -20 -55 -56 -66 0
-1 -4 -5 -7 -18 -19 -21 -55 -57 -67 0
-1 -4 -5 -8 -18 -19 -22 -55 -58 -68 0
-1 -4 -5 -9 -18 -19 -23 -55 -59 -69 0
-1 -4 -5 -10 -18 -19 -24 -55 -60 -70 0
-1 -4 -5 -11 -18 -19 -25 -55 -61 -71 0
-1 -4 -5 -12 -18 -19 -26 -55 -62 -72 0
-1 -4 -5 -13 -18 -19 -27 -55 -63 -73 0
-1 -4 -5 -14 -18 -19 -28 -55 -64 -74 0
-1 -4 -5 -15 -18 -19 -29 -55 -65 -75 0
-1 -4 -6 -7 -18 -20 -21 -56 -57 -76 0
-1 -4 -6 -8 -18 -20 -22 -56 -58 -77 0
-1 -4 -6 -9 -18 -20 -23 -56 -59 -78 0
-1 -4 -6 -10 -18 -20 -24 -56 -60 -79 0
-1 -4 -6 -11 -18 -20 -25 -56 -61 -80 0
-1 -4 -6 -12 -18 -20 -26 -56 -62 -81 0
-1 -4 -6 -13 -18 -20 -27 -56 -63 -82 0
-1 -4 -6 -14 -18 -20 -28 -56 -64 -83 0
-1 -4 -6 -15 -18 -20 -29 -56 -65 -84 0
-1 -4 -7 -8 -18 -21 -22 -57 -58 -85 0
-1 -4 -7 -9 -18 -21 -23 -57 -59 -86 0
-1 -4 -7 -10 -18 -21 -24 -57 -60 -87 0
-1 -4 -7 -11 -18 -21 -25 -57 -61 -88 0
-1 -4 -7 -12 -18 -21 -26 -57 -62 -89 0
-1 -4 -7 -13 -18 -21 -27 -57 -63 -90 0
-1 -4 -7 -14 -18 -21 -28 -57 -64 -91 0
-1 -4 -7 -15 -18 -21 -29 -57 -65 -92 0
-1 -4 -8 -9 -18 -22 -23 -58 -59 -93 0
-1 -4 -8 -10 -18 -22 -24 -58 -60 -94 0
-1 -4 -8 -11 -18 -22 -25 -58 -61 -95 0
-1 -4 -8 -12 -18 -22 -26 -58 -62 -96 0
-1 -4 -8 -13 -18 -22 -27 -58 -63 -97 0
-1 -4 -8 -14 -18 -22 -28 -58 -64 -98 0
-1 -4 -8 -15 -18 -22 -29 -58 -65 -99 0
-1 -4 -9 -10 -18 -23 -24 -59 -60 -100 0
-1 -4 -9 -11 -18 -23 -25 -59 -61 -101 0
-1 -4 -9 -12 -18 -23 -26 -59 -62 -102 0
-1 -4 -9 -13 -18 -23 -27 -59 -63 -103 0
-1 -4 -9 -14 -18 -23 -28 -59 -64 -104 0
-1 -4 -9 -15 -18 -23 -29 -59 -65 -105 0
-1 -4 -10 -11 -18 -24 -25 -60 -61 -106 0
-1 -4 -10 -12 -18 -24 -26 -60 -62 -107 0
-1 -4 -10 -13 -18 -24 -27 -60 -63 -108 0
-1 -4 -10 -14 -18 -24 -28 -60 -64 -109 0
-1 -4 -10 -15 -18 -24 -29 -60 -65 -110 0
-1 -4 -11 -12 -18 -25 -26 -61 -62 -111 0
-1 -4 -11 -13 -18 -25 -27 -61 -63 -112 0
-1 -4 -11 -14 -18 -25 -28 -61 -64 -113 0
-1 -4 -11 -15 -18 -25 -29 -61 -65 -114 0
-1 -4 -12 -13 -18 -26 -27 -62 -63 -115 0
-1 -4 -12 -14 -18 -26 -28 -62 -64 -116 0
-1 -4 -12 -15 -18 -26 -29 -62 -65 -117 0
-1 -4 -13 -14 -18 -27 -28 -63 -64 -118 0
-1 -4 -13 -15 -18 -27 -29 -63 -65 -119 0
-1 -4 -14 -15 -18 -28 -29 -64 -65 -120 0
-1 -5 -6 -7 -19 -20 -21 -66 -67 -76 0
-1 -5 -6 -8 -19 -20 -22 -66 -68 -77 0
-1 -5 -6 -9 -19 -20 -23 -66 -69 -78 0
-1 -5 -6 -10 -19 -20 -24 -66 -70 -79 0
-1 -5 -6 -11 -19 -20 -25 -66 -71 -80 0
-1 -5 -6 -12 -19 -20 -26 -66 -72 -81 0
-1 -5 -6 -13 -19 -20 -27 -66 -73 -82 0
-1 -5 -6 -14 -19 -20 -28 -66 -74 -83 0
-1 -5 -6 -15 -19 -20 -29 -66 -75 -84 0
-1 -5 -7 -8 -19 -21 -22 -67 -68 -85 0
-1 -5 -7 -9 -19 -21 -23 -67 -69 -86 0
-1 -5 -7 -10 -19 -21 -24 -67 -70 -87 0
-1 -5 -7 -11 -19 -21 -25 -67 -71 -88 0
-1 -5 -7 -12 -19 -21 -26 -67 -72 -89 0
-1 -5 -7 -13 -19 -21 -27 -67 -73 -90 0
-1 -5 -7 -14 -19 -21 -28 -67 -74 -91 0
-1 -5 -7 -15 -19 -21 -29 -67 -75 -92 0
-1 -5 -8 -9 -19 -22 -23 -68 -69 -93 0
-1 -5 -8 -10 -19 -22 -24 -68 -70 -94 0
-1 -5 -8 -11 -19 -22 -25 -68 -71 -95 0
-1 -5 -8 -12 -19 -22 -26 -68 -72 -96 0
-1 -5 -8 -13 -19 -22 -27 -68 -73 -97 0
-1 -5 -8 -14 -19 -22 -28 -68 -74 -98 0
-1 -5 -8 -15 -19 -22 -29 -68 -75 -99 0
-1 -5 -9 -10 -19 -23 -24 -69 -70 -100 0
-1 -5 -9 -11 -19 -23 -25 -69 -71 -101 0
-1 -5 -9 -12 -19 -23 -26 -69 -72 -102 0
-1 -5 -9 -13 -19 -23 -27 -69 -73 -103 0
-1 -5 -9 -14 -19 -23 -28 -69 -74 -104 0
-1 -5 -9 -15 -19 -23 -29 -69 -75 -105 0
-1 -5 -10 -11 -19 -24 -25 -70 -71 -106 0
-1 -5 -10 -12 -19 -24 -26 -70 -72 -107 0
-1 -5 -10 -13 -19 -24 -27 -70 -73 -108 0
-1 -5 -10 -14 -19 -24 -28 -70 -74 -109 0
-1 -5 -10 -15 -19 -24 -29 -70 -75 -110 0
-1 -5 -11 -12 -19 -25 -26 -71 -72 -111 0
-1 -5 -11 -13 -19 -25 -27 -71 -73 -112 0
-1 -5 -11 -14 -19 -25 -28 -71 -74 -113 0
-1 -5 -11 -15 -19 -25 -29 -71 -75 -114 0
-1 -5 -12 -13 -19 -26 -27 -72 -73 -115 0
-1 -5 -12 -14 -19 -26 -28 -72 -74 -116 0
-1 -5 -12 -15 -19 -26 -29 -72 -75 -117 0
-1 -5 -13 -14 -19 -27 -28 -73 -74 -118 0
-1 -5 -13 -15 -19 -27 -29 -73 -75 -119 0
-1 -5 -14 -15 -19 -28 -29 -74 -75 -120 0
-1 -6 -7 -8 -20 -21 -22 -76 -77 -85 0
-1 -6 -7 -9 -20 -21 -23 -76 -78 -86 0
-1 -6 -7 -10 -20 -21 -24 -76 -79 -87 0
-1 -6 -7 -11 -20 -21 -25 -76 -80 -88 0
-1 -6 -7 -12 -20 -21 -26 -76 -81 -89 0
-1 -6 -7 -13 -20 -21 -27 -76 -82 -90 0
-1 -6 -7 -14 -20 -21 -28 -76 -83 -91 0
-1 -6 -7 -15 -20 -21 -29 -76 -84 -92 0
-1 -6 -8 -9 -20 -22 -23 -77 -78 -93 0
-1 -6 -8 -10 -20 -22 -24 -77 -79 -94 0
-1 -6 -8 -11 -20 -22 -25 -77 -80 -95 0
-1 -6 -8 -12 -20 -22 -26 -77 -81 -96 0
-1 -6 -8 -13 -20 -22 -27 -77 -82 -97 0
-1 -6 -8 -14 -20 -22 -28 -77 -83 -98 0
-1 -6 -8 -15 -20 -22 -29 -77 -84 -99 0
-1 -6 -9 -10 -20 -23 -24 -78 -79 -100 0
-1 -6 -9 -11 -20 -23 -25 -78 -80 -101 0
-1 -6 -9 -12 -20 -23 -26 -78 -81 -102 0
-1 -6 -9 -13 -20 -23 -27 -78 -82 -103 0
-1 -6 -9 -14 -20 -23 -28 -78 -83 -104 0
-1 -6 -9 -15 -20 -23 -29 -78 -84 -105 0
-1 -6 -10 -11 -20 -24 -25 -79 -80 -106 0
-1 -6 -10 -12 -20 -24 -26 -79 -81 -107 0
-1 -6 -10 -13 -20 -24 -27 -79 -82 -108 0
-1 -6 -10 -14 -20 -24 -28 -79 -83 -109 0
-1 -6 -10 -15 -20 -24 -29 -79 -84 -110 0
-1 -6 -11 -12 -20 -25 -26 -80 -81 -111 0
-1 -6 -11 -13 -20 -25 -27 -80 -82 -112 0
-1 -6 -11 -14 -20 -25 -28 -80 -83 -113 0
-1 -6 -11 -15 -20 -25 -29 -80 -84 -114 0
-1 -6 -12 -13 -20 -26 -27 -81 -82 -115 0
-1 -6 -12 -14 -20 -26 -28 -81 -83 -116 0
-1 -6 -12 -15 -20 -26 -29 -81 -84 -117 0
-1 -6 -13 -14 -20 -27 -28 -82 -83 -118 0
-1 -6 -13 -15 -20 -27 -29 -82 -84 -119 0
-1 -6 -14 -15 -20 -28 -29 -83 -84 -120 0
-1 -7 -8 -9 -21 -22 -23 -85 -86 -93 0
-1 -7 -8 -10 -21 -22 -24 -85 -87 -94 0
-1 -7 -8 -11 -21 -22 -25 -85 -88 -95 0
-1 -7 -8 -12 -21 -22 -26 -85 -89 -96 0
-1 -7 -8 -13 -21 -22 -27 -85 -90 -97 0
-1 -7 -8 -14 -21 -22 -28 -85 -91 -98 0
-1 -7 -8 -15 -21 -22 -29 -85 -92 -99 0
-1 -7 -9 -10 -21 -23 -24 -86 -87 -100 0
-1 -7 -9 -11 -21 -23 -25 -86 -88 -101 0
-1 -7 -9 -12 -21 -23 -26 -86 -89 -102 0
-1 -7 -9 -13 -21 -23 -27 -86 -90 -103 0
-1 -7 -9 -14 -21 -23 -28 -86 -91 -104 0
-1 -7 -9 -15 -21 -23 -29 -86 -92 -105 0
-1 -7 -10 -11 -21 -24 -25 -87 -88 -106 0
-1 -7 -10 -12 -21 -24 -26 -87 -89 -107 0
-1 -7 -10 -13 -21 -24 -27 -87 -90 -108 0
-1 -7 -10 -14 -21 -24 -28 -87 -91 -109 0
-1 -7 -10 -15 -21 -24 -29 -87 -92 -110 0
-1 -7 -11 -12 -21 -25 -26 -88 -89 -111 0
-1 -7 -11 -13 -21 -25 -27 -88 -90 -112 0
-1 -7 -11 -14 -21 -25 -28 -88 -91 -113 0
-1 -7 -11 -15 -21 -25 -29 -88 -92 -114 0
-1 -7 -12 -13 -21 -26 -27 -89 -90 -115 0
-1 -7 -12 -14 -21 -26 -28 -89 -91 -116 0
-1 -7 -12 -15 -21 -26 -29 -89 -92 -117 0
-1 -7 -13 -14 -21 -27 -28 -90 -91 -118 0
-1 -7 -13 -15 -21 -27 -29 -90 -92 -119 0
-1 -7 -14 -15 -21 -28 -29 -91 -92 -120 0
-1 -8 -9 -10 -22 -23 -24 -93 -94 -100 0
-1 -8 -9 -11 -22 -23 -25 -93 -95 -101 0
-1 -8 -9 -12 -22 -23 -26 -93 -96 -102 0
-1 -8 -9 -13 -22 -23 -27 -93 -97 -103 0
-1 -8 -9 -14 -22 -23 -28 -93 -98 -104 0
-1 -8 -9 -15 -22 -23 -29 -93 -99 -105 0
-1 -8 -10 -11 -22 -24 -25 -94 -95 -106 0
-1 -8 -10 -12 -22 -24 -26 -94 -96 -107 0
-1 -8 -10 -13 -22 -24 -27 -94 -97 -108 0
-1 -8 -10 -14 -22 -24 -28 -94 -98 -109 0
-1 -8 -10 -15 -22 -24 -29 -94 -99 -110 0
-1 -8 -11 -12 -22 -25 -26 -95 -96 -111 0
-1 -8 -11 -13 -22 -25 -27 -95 -97 -112 0
-1 -8 -11 -14 -22 -25 -28 -95 -98 -113 0
-1 -8 -11 -15 -22 -25 -29 -95 -99 -114 0
-1 -8 -12 -13 -22 -26 -27 -96 -97 -115 0
-1 -8 -12 -14 -22 -26 -28 -96 -98 -116 0
-1 -8 -12 -15 -22 -26 -29 -96 -99 -117 0
-1 -8 -13 -14 -22 -27 -28 -97 -98 -118 0
-1 -8 -13 -15 -22 -27 -29 -97 -99 -119 0
-1 -8 -14 -15 -22 -28 -29 -98 -99 -120 0
-1 -9 -10 -11 -23 -24 -25 -100 -101 -106 0
-1 -9 -10 -12 -23 -24 -26 -100 -102 -107 0
-1 -9 -10 -13 -23 -24 -27 -100 -103 -108 0
-1 -9 -10 -14 -23 -24 -28 -100 -104 -109 0
-1 -9 -10 -15 -23 -24 -29 -100 -105 -110 0
-1 -9 -11 -12 -23 -25 -26 -101 -102 -111 0
-1 -9 -11 -13 -23 -25 -27 -101 -103 -112 0
-1 -9 -11 -14 -23 -25 -28 -101 -104 -113 0
-1 -9 -11 -15 -23 -25 -29 -101 -105 -114 0
-1 -9 -12 -13 -23 -26 -27 -102 -103 -115 0
-1 -9 -12 -14 -23 -26 -28 -102 -104 -116 0
-1 -9 -12 -15 -23 -26 -29 -102 -105 -117 0
-1 -9 -13 -14 -23 -27 -28 -103 -104 -118 0
-1 -9 -13 -15 -23 -27 -29 -103 -105 -119 0
-1 -9 -14 -15 -23 -28 -29 -104 -105 -120 0
-1 -10 -11 -12 -24 -25 -26 -106 -107 -111 0
-1 -10 -11 -13 -24 -25 -27 -106 -108 -112 0
-1 -10 -11 -14 -24 -25 -28 -106 -109 -113 0
-1 -10 -11 -15 -24 -25 -29 -106 -110 -114 0
-1 -10 -12 -13 -24 -26 -27 -107 -108 -115 0
-1 -10 -12 -14 -24 -26 -28 -107 -109 -116 0
-1 -10 -12 -15 -24 -26 -29 -107 -110 -117 0
-1 -10 -13 -14 -24 -27 -28 -108 -109 -118 0
-1 -10 -13 -15 -24 -27 -29 -108 -110 -119 0
-1 -10 -14 -15 -24 -28 -29 -109 -110 -120 0
-1 -11 -12 -13 -25 -26 -27 -111 -112 -115 0
-1 -11 -12 -14 -25 -26 -28 -111 -113 -116 0
-1 -11 -12 -15 -25 -26 -29 -111 -114 -117 0
-1 -11 -13 -14 -25 -27 -28 -112 -113 -118 0
-1 -11 -13 -15 -25 -27 -29 -112 -114 -119 0
-1 -11 -14 -15 -25 -28 -29 -113 -114 -120 0
-1 -12 -13 -14 -26 -27 -28 -115 -116 -118 0
-1 -12 -13 -15 -26 -27 -29 -115 -117 -119 0
-1 -12 -14 -15 -26 -28 -29 -116 -117 -120 0
-1 -13 -14 -15 -27 -28 -29 -118 -119 -120 0
-2 -3 -4 -5 -30 -31 -32 -43 -44 -55 0
-2 -3 -4 -6 -30 -31 -33 -43 -45 -56 0
-2 -3 -4 -7 -30 -31 -34 -43 -46 -57 0
-2 -3 -4 -8 -30 -31 -35 -43 -47 -58 0
-2 -3 -4 -9 -30 -31 -36 -43 -48 -59 0
-2 -3 -4 -10 -30 -31 -37 -43 -49 -60 0
-2 -3 -4 -11 -30 -31 -38 -43 -50 -61 0
-2 -3 -4 -12 -30 -31 -39 -43 -51 -62 0
-2 -3 -4 -13 -30 -31 -40 -43 -52 -63 0
-2 -3 -4 -14 -30 -31 -41 -43 -53 -64 0
-2 -3 -4 -15 -30 -31 -42 -43 -54 -65 0
-2 -3 -5 -6 -30 -32 -33 -44 -45 -66 0
-2 -3 -5 -7 -30 -32 -34 -44 -46 -67 0
-2 -3 -5 -8 -30 -32 -35 -44 -47 -68 0
-2 -3 -5 -9 -30 -32 -36 -44 -48 -69 0
-2 -3 -5 -10 -30 -32 -37 -44 -49 -70 0
-2 -3 -5 -11 -30 -32 -38 -44 -50 -71 0
-2 -3 -5 -12 -30 -32 -39 -44 -51 -72 0
-2 -3 -5 -13 -30 -32 -40 -44 -52 -73 0
-2 -3 -5 -14 -30 -32 -41 -44 -53 -74 0
-2 -3 -5 -15 -30 -32 -42 -44 -54 -75 0
-2 -3 -6 -7 -30 -33 -34 -45 -46 -76 0
-2 -3 -6 -8 -30 -33 -35 -45 -47 -77 0
-2 -3 -6 -9 -30 -33 -36 -45 -48 -78 0
-2 -3 -6 -10 -30 -33 -37 -45 -49 -79 0
-2 -3 -6 -11 -30 -33 -38 -45 -50 -80 0
-2 -3 -6 -12 -30 -33 -39 -45 -51 -81 0
-2 -3 -6 -13 -30 -33 -40 -45 -52 -82 0
-2 -3 -6 -14 -30 -33 -41 -45 -53 -83 0
-2 -3 -6 -15 -30 -33 -42 -45 -54 -84 0
-2 -3 -7 -8 -30 -34 -35 -46 -47 -85 0
-2 -3 -7 -9 -30 -34 -36 -46 -48 -86 0
-2 -3 -7 -10 -30 -34 -37 -46 -49 -87 0
-2 -3 -7 -11 -30 -34 -38 -46 -50 -88 0
-2 -3 -7 -12 -30 -34 -39 -46 -51 -89 0
-2 -3 -7 -13 -30 -34 -40 -46 -52 -90 0
-2 -3 -7 -14 -30 -34 -41 -46 -53 -91 0
-2 -3 -7 -15 -30 -34 -42 -46 -54 -92 0
-2 -3 -8 -9 -30 -35 -36 -47 -48 -93 0
-2 -3 -8 -10 -30 -35 -37 -47 -49 -94 0
-2 -3 -8 -11 -30 -35 -38 -47 -50 -95 0
-2 -3 -8 -12 -30 -35 -39 -47 -51 -96 0
-2 -3 -8 -13 -30 -35 -40 -47 -52 -97 0
-2 -3 -8 -14 -30 -35 -41 -47 -53 -98 0
-2 -3 -8 -15 -30 -35 -42 -47 -54 -99 0
-2 -3 -9 -10 -30 -36 -37 -48 -49 -100 0
-2 -3 -9 -11 -30 -36 -38 -48 -50 -101 0
-2 -3 -9 -12 -30 -36 -39 -48 -51 -102 0
-2 -3 -9 -13 -30 -36 -40 -48 -52 -103 0
-2 -3 -9 -14 -30 -36 -41 -48 -53 -104 0
-2 -3 -9 -15 -30 -36 -42 -48 -54 -105 0
-2 -3 -10 -11 -30 -37 -38 -49 -50 -106 0
-2 -3 -10 -12 -30 -37 -39 -49 -51 -107 0
-2 -3 -10 -13 -30 -37 -40 -49 -52 -108 0
-2 -3 -10 -14 -30 -37 -41 -49 -53 -109 0
-2 -3 -10 -15 -30 -37 -42 -49 -54 -110 0
-2 -3 -11 -12 -30 -38 -39 -50 -51 -111 0
-2 -3 -11 -13 -30 -38 -40 -50 -52 -112 0
-2 -3 -11 -14 -30 -38 -41 -50 -53 -113 0
-2 -3 -11 -15 -30 -38 -42 -50 -54 -114 0
-2 -3 -12 -13 -30 -39 -40 -51 -52 -115 0
-2 -3 -12 -14 -30 -39 -41 -51 -53 -116 0
-2 -3 -12 -15 -30 -39 -42 -51 -54 -117 0
-2 -3 -13 -14 -30 -40 -41 -52 -53 -118 0
-2 -3 -13 -15 -30 -40 -42 -52 -54 -119 0
-2 -3 -14 -15 -30 -41 -42 -53 -54 -120 0
-2 -4 -5 -6 -31 -32 -33 -55 -56 -66 0
-2 -4 -5 -7 -31 -32 -34 -55 -57 -67 0
-2 -4 -5 -8 -31 -32 -35 -55 -58 -68 0
-2 -4 -5 -9 -31 -32 -36 -55 -59 -69 0
-2 -4 -5 -10 -31 -32 -37 -55 -60 -70 0
-2 -4 -5 -11 -31 -32 -38 -55 -61 -71 0
-2 -4 -5 -12 -31 -32 -39 -55 -62 -72 0
-2 -4 -5 -13 -31 -32 -40 -55 -63 -73 0
-2 -4 -5 -14 -31 -32 -41 -55 -64 -74 0
-2 -4 -5 -15 -31 -32 -42 -55 -65 -75 0
-2 -4 -6 -7 -31 -33 -34 -56 -57 -76 0
-2 -4 -6 -8 -31 -33 -35 -56 -58 -77 0
-2 -4 -6 -9 -31 -33 -36 -56 -59 -78 0
-2 -4 -6 -10 -31 -33 -37 -56 -60 -79 0
-2 -4 -6 -11 -31 -33 -38 -56 -61 -80 0
-2 -4 -6 -12 -31 -33 -39 -56 -62 -81 0
-2 -4 -6 -13 -31 -33 -40 -56 -63 -82 0
-2 -4 -6 -14 -31 -33 -41 -56 -64 -83 0
-2 -4 -6 -15 -31 -33 -42 -56 -65 -84 0
-2 -4 -7 -8 -31 -34 -35 -57 -58 -85 0
-2 -4 -7 -9 -31 -34 -36 -57 -59 -86 0
-2 -4 -7 -10 -31 -34 -37 -57 -60 -87 0
-2 -4 -7 -11 -31 -34 -38 -57 -61 -88 0
-2 -4 -7 -12 -31 -34 -39 -57 -62 -89 0
-2 -4 -7 -13 -31 -34 -40 -57 -63 -90 0
-2 -4 -7 -14 -31 -34 -41 -57 -64 -91 0
-2 -4 -7 -15 -31 -34 -42 -57 -65 -92 0
-2 -4 -8 -9 -31 -35 -36 -58 -59 -93 0
-2 -4 -8 -10 -31 -35 -37 -58 -60 -94 0
-2 -4 -8 -11 -31 -35 -38 -58 -61 -95 0
-2 -4 -8 -12 -31 -35 -39 -58 -62 -96 0
-2 -4 -8 -13 -31 -35 -40 -58 -63 -97 0
-2 -4 -8 -14 -31 -35 -41 -58 -64 -98 0
-2 -4 -8 -15 -31 -35 -42 -58 -65 -99 0
-2 -4 -9 -10 -31 -36 -37 -59 -60 -100 0
-2 -4 -9 -11 -31 -36 -38 -59 -61 -101 0
-2 -4 -9 -12 -31 -36 -39 -59 -62 -102 0
-2 -4 -9 -13 -31 -36 -40 -59 -63 -103 0
-2 -4 -9 -14 -31 -36 -41 -59 -64 -104 0
-2 -4 -9 -15 -31 -36 -42 -59 -65 -105 0
-2 -4 -10 -11 -31 -37 -38 -60 -61 -106 0
-2 -4 -10 -12 -31 -37 -39 -60 -62 -107 0
-2 -4 -10 -13 -31 -37 -40 -60 -63 -108 0
-2 -4 -10 -14 -31 -37 -41 -60 -64 -109 0
-2 -4 -10 -15 -31 -37 -42 -60 -65 -110 0
-2 -4 -11 -12 -31 -38 -39 -61 -62 -111 0
-2 -4 -11 -13 -31 -38 -40 -61 -63 -112 0
-2 -4 -11 -14 -31 -38 -41 -61 -64 -113 0
-2 -4 -11 -15 -31 -38 -42 -61 -65 -114 0
-2 -4 -12 -13 -31 -39 -40 -62 -63 -115 0
-2 -4 -12 -14 -31 -39 -41 -62 -64 -116 0
-2 -4 -12 -15 -31 -39 -42 -62 -65 -117 0
-2 -4 -13 -14 -31 -40 -41 -63 -64 -118 0
-2 -4 -13 -15 -31 -40 -42 -63 -65 -119 0
-2 -4 -14 -15 -31 -41 -42 -64 -65 -120 0
-2 -5 -6 -7 -32 -33 -34 -66 -67 -76 0
-2 -5 -6 -8 -32 -33 -35 -66 -68 -77 0
-2 -5 -6 -9 -32 -33 -36 -66 -69 -78 0
-2 -5 -6 -10 -32 -33 -37 -66 -70 -79 0
-2 -5 -6 -11 -32 -33 -38 -66 -71 -80 0
-2 -5 -6 -12 -32 -33 -39 -66 -72 -81 0
-2 -5 -6 -13 -32 -33 -40 -66 -73 -82 0
-2 -5 -6 -14 -32 -33 -41 -66 -74 -83 0
-2 -5 -6 -15 -32 -33 -42 -66 -75 -84 0
-2 -5 -7 -8 -32 -34 -35 -67 -68 -85 0
-2 -5 -7 -9 -32 -34 -36 -67 -69 -86 0
-2 -5 -7 -10 -32 -34 -37 -67 -70 -87 0
-2 -5 -7 -11 -32 -34 -38 -67 -71 -88 0
-2 -5 -7 -12 -32 -34 -39 -67 -72 -89 0
-2 -5 -7 -13 -32 -34 -40 -67 -73 -90 0
-2 -5 -7 -14 -32 -34 -41 -67 -74 -91 0
-2 -5 -7 -15 -32 -34 -42 -67 -75 -92 0
-2 -5 -8 -9 -32 -35 -36 -68 -69 -93 0
-2 -5 -8 -10 -32 -35 -37 -68 -70 -94 0
-2 -5 -8 -11 -32 -35 -38 -68 -71 -95 0
-2 -5 -8 -12 -32 -35 -39 -68 -72 -96 0
-2 -5 -8 -13 -32 -35 -40 -68 -73 -97 0
-2 -5 -8 -14 -32 -35 -41 -68 -74 -98 0
-2 -5 -8 -15 -32 -35 -42 -68 -75 -99 0
-2 -5 -9 -10 -32 -36 -37 -69 -70 -100 0
-2 -5 -9 -11 -32 -36 -38 -69 -71 -101 0
-2 -5 -9 -12 -32 -36 -39 -69 -72 -102 0
-2 -5 -9 -13 -32 -36 -40 -69 -73 -103 0
-2 -5 -9 -14 -32 -36 -41 -69 -74 -104 0
-2 -5 -9 -15 -32 -36 -42 -69 -75 -105 0
-2 -5 -10 -11 -32 -37 -38 -70 -71 -106 0
-2 -5 -10 -12 -32 -37 -39 -70 -72 -107 0
-2 -5 -10 -13 -32 -37 -40 -70 -73 -108 0
-2 -5 -10 -14 -32 -37 -41 -70 -74 -109 0
-2 -5 -10 -15 -32 -37 -42 -70 -75 -110 0
-2 -5 -11 -12 -32 -38 -39 -71 -72 -111 0
-2 -5 -11 -13 -32 -38 -40 -71 -73 -112 0
-2 -5 -11 -14 -32 -38 -41 -71 -74 -113 0
-2 -5 -11 -15 -32 -38 -42 -71 -75 -114 0
-2 -5 -12 -13 -32 -39 -40 -72 -73 -115 0
-2 -5 -12 -14 -32 -39 -41 -72 -74 -116 0
-2 -5 -12 -15 -32 -39 -42 -72 -75 -117 0
-2 -5 -13 -14 -32 -40 -41 -73 -74 -118 0
-2 -5 -13 -15 -32 -40 -42 -73 -75 -119 0
-2 -5 -14 -15 -32 -41 -42 -74 -75 -120 0
-2 -6 -7 -8 -33 -34 -35 -76 -77 -85 0
-2 -6 -7 -9 -33 -34 -36 -76 -78 -86 0
-2 -6 -7 -10 -33 -34 -37 -76 -79 -87 0
-2 -6 -7 -11 -33 -34 -38 -76 -80 -88 0
-2 -6 -7 -12 -33 -34 -39 -76 -81 -89 0
-2 -6 -7 -13 -33 -34 -40 -76 -82 -90 0
-2 -6 -7 -14 -33 -34 -41 -76 -83 -91 0
-2 -6 -7 -15 -33 -34 -42 -76 -84 -92 0
-2 -6 -8 -9 -33 -35 -36 -77 -78 -93 0
-2 -6 -8 -10 -33 -35 -37 -77 -79 -94 0
-2 -6 -8 -11 -33 -35 -38 -77 -80 -95 0
-2 -6 -8 -12 -33 -35 -39 -77 -81 -96 0
-2 -6 -8 -13 -33 -35 -40 -77 -82 -97 0
-2 -6 -8 -14 -33 -35 -41 -77 -83 -98 0
-2 -6 -8 -15 -33 -35 -42 -77 -84 -99 0
-2 -6 -9 -10 -33 -36 -37 -78 -79 -100 0
-2 -6 -9 -11 -33 -36 -38 -78 -80 -101 0
-2 -6 -9 -12 -33 -36 -39 -78 -81 -102 0
-2 -6 -9 -13 -33 -36 -40 -78 -82 -103 0
-2 -6 -9 -14 -33 -36 -41 -78 -83 -104 0
-2 -6 -9 -15 -33 -36 -42 -78 -84 -105 0
-2 -6 -10 -11 -33 -37 -38 -79 -80 -106 0
-2 -6 -10 -12 -33 -37 -39 -79 -81 -107 0
-2 -6 -10 -13 -33 -37 -40 -79 -82 -108 0
-2 -6 -10 -14 -33 -37 -41 -79 -83 -109 0
-2 -6 -10 -15 -33 -37 -42 -79 -84 -110 0
-2 -6 -11 -12 -33 -38 -39 -80 -81 -111 0
-2 -6 -11 -13 -33 -38 -40 -80 -82 -112 0
-2 -6 -11 -14 -33 -38 -41 -80 -83 -113 0
-2 -6 -11 -15 -33 -38 -42 -80 -84 -114 0
-2 -6 -12 -13 -33 -39 -40 -81 -82 -115 0
-2 -6 -12 -14 -33 -39 -41 -81 -83 -116 0
-2 -6 -12 -15 -33 -39 -42 -81 -84 -117 0
-2 -6 -13 -14 -33 -40 -41 -82 -83 -118 0
-2 -6 -13 -15 -33 -40 -42 -82 -84 -119 0
-2 -6 -14 -15 -33 -41 -42 -83 -84 -120 0
-2 -7 -8 -9 -34 -35 -36 -85 -86 -93 0
-2 -7 -8 -10 -34 -35 -37 -85 -87 -94 0
-2 -7 -8 -11 -34 -35 -38 -85 -88 -95 0
-2 -7 -8 -12 -34 -35 -39 -85 -89 -96 0
-2 -7 -8 -13 -34 -35 -40 -85 -90 -97 0
-2 -7 -8 -14 -34 -35 -41 -85 -91 -98 0
-2 -7 -8 -15 -34 -35 -42 -85 -92 -99 0
-2 -7 -9 -10 -34 -36 -37 -86 -87 -100 0
-2 -7 -9 -11 -34 -36 -38 -86 -88 -101 0
-2 -7 -9 -12 -34 -36 -39 -86 -89 -102 0
-2 -7 -9 -13 -34 -36 -40 -86 -90 -103 0
-2 -7 -9 -14 -34 -36 -41 -86 -91 -104 0
-2 -7 -9 -15 -34 -36 -42 -86 -92 -105 0
-2 -7 -10 -11 -34 -37 -38 -87 -88 -106 0
-2 -7 -10 -12 -34 -37 -39 -87 -89 -107 0
-2 -7 -10 -13 -34 -37 -40 -87 -90 -108 0
-2 -7 -10 -14 -34 -37 -41 -87 -91 -109 0
-2 -7 -10 -15 -34 -37 -42 -87 -92 -110 0
-2 -7 -11 -12 -34 -38 -39 -88 -89 -111 0
-2 -7 -11 -13 -34 -38 -40 -88 -90 -112 0
-2 -7 -11 -14 -34 -38 -41 -88 -91 -113 0
-2 -7 -11 -15 -34 -38 -42 -88 -92 -114 0
-2 -7 -12 -13 -34 -39 -40 -89 -90 -115 0
-2 -7 -12 -14 -34 -39 -41 -89 -91 -116 0
-2 -7 -12 -15 -34 -39 -42 -89 -92 -117 0
-2 -7 -13 -14 -34 -40 -41 -90 -91 -118 0
-2 -7 -13 -15 -34 -40 -42 -90 -92 -119 0
-2 -7 -14 -15 -34 -41 -42 -91 -92 -120 0
-2 -8 -9 -10 -35 -36 -37 -93 -94 -100 0
-2 -8 -9 -11 -35 -36 -38 -93 -95 -101 0
-2 -8 -9 -12 -35 -36 -39 -93 -96 -102 0
-2 -8 -9 -13 -35 -36 -40 -93 -97 -103 0
-2 -8 -9 -14 -35 -36 -41 -93 -98 -104 0
-2 -8 -9 -15 -35 -36 -42 -93 -99 -105 0
-2 -8 -10 -11 -35 -37 -38 -94 -95 -106 0
-2 -8 -10 -12 -35 -37 -39 -94 -96 -107 0
-2 -8 -10 -13 -35 -37 -40 -94 -97 -108 0
-2 -8 -10 -14 -35 -37 -41 -94 -98 -109 0
-2 -8 -10 -15 -35 -37 -42 -94 -99 -110 0
-2 -8 -11 -12 -35 -38 -39 -95 -96 -111 0
-2 -8 -11 -13 -35 -38 -40 -95 -97 -112 0
-2 -8 -11 -14 -35 -38 -41 -95 -98 -113 0
-2 -8 -11 -15 -35 -38 -42 -95 -99 -114 0
-2 -8 -12 -13 -35 -39 -40 -96 -97 -115 0
-2 -8 -12 -14 -35 -39 -41 -96 -98 -116 0
-2 -8 -12 -15 -35 -39 -42 -96 -99 -117 0
-2 -8 -13 -14 -35 -40 -41 -97 -98 -118 0
-2 -8 -13 -15 -35 -40 -42 -97 -99 -119 0
-2 -8 -14 -15 -35 -41 -42 -98 -99 -120 0
-2 -9 -10 -11 -36 -37 -38 -100 -101 -106 0
-2 -9 -10 -12 -36 -37 -39 -100 -102 -107 0
-2 -9 -10 -13 -36 -37 -40 -100 -103 -108 0
-2 -9 -10 -14 -36 -37 -41 -100 -104 -109 0
-2 -9 -10 -15 -36 -37 -42 -100 -105 -110 0
-2 -9 -11 -12 -36 -38 -39 -101 -102 -111 0
-2 -9 -11 -13 -36 -38 -40 -101 -103 -112 0
-2 -9 -11 -14 -36 -38 -41 -101 -104 -113 0
-2 -9 -11 -15 -36 -38 -42 -101 -105 -114 0
-2 -9 -12 -13 -36 -39 -40 -102 -103 -115 0
-2 -9 -12 -14 -36 -39 -41 -102 -104 -116 0
-2 -9 -12 -15 -36 -39 -42 -102 -105 -117 0
-2 -9 -13 -14 -36 -40 -41 -103 -104 -118 0
-2 -9 -13 -15 -36 -40 -42 -103 -105 -119 0
-2 -9 -14 -15 -36 -41 -42 -104 -105 -120 0
-2 -10 -11 -12 -37 -38 -39 -106 -107 -111 0
-2 -10 -11 -13 -37 -38 -40 -106 -108 -112 0
-2 -10 -11 -14 -37 -38 -41 -106 -109 -113 0
-2 -10 -11 -15 -37 -38 -42 -106 -110 -114 0
-2 -10 -12 -13 -37 -39 -40 -107 -108 -115 0
-2 -10 -12 -14 -37 -39 -41 -107 -109 -116 0
-2 -10 -12 -15 -37 -39 -42 -107 -110 -117 0
-2 -10 -13 -14 -37 -40 -41 -108 -109 -118 0
-2 -10 -13 -15 -37 -40 -42 -108 -110 -119 0
-2 -10 -14 -15 -37 -41 -42 -109 -110 -120 0
-2 -11 -12 -13 -38 -39 -40 -111 -112 -115 0
-2 -11 -12 -14 -38 -39 -41 -111 -113 -116 0
-2 -11 -12 -15 -38 -39 -42 -111 -114 -117 0
-2 -11 -13 -14 -38 -40 -41 -112 -113 -118 0
-2 -11 -13 -15 -38 -40 -42 -112 -114 -119 0
-2 -11 -14 -15 -38 -41 -42 -113 -114 -120 0
-2 -12 -13 -14 -39 -40 -41 -115 -116 -118 0
-2 -12 -13 -15 -39 -40 -42 -115 -117 -119 0
-2 -12 -14 -15 -39 -41 -42 -116 -117 -120 0
-2 -13 -14 -15 -40 -41 -42 -118 -119 -120 0
-3 -4 -5 -6 -43 -44 -45 -55 -56 -66 0
-3 -4 -5 -7 -43 -44 -46 -55 -57 -67 0
-3 -4 -5 -8 -43 -44 -47 -55 -58 -68 0
-3 -4 -5 -9 -43 -44 -48 -55 -59 -69 0
-3 -4 -5 -10 -43 -44 -49 -55 -60 -70 0
-3 -4 -5 -11 -43 -44 -50 -55 -61 -71 0
-3 -4 -5 -12 -43 -44 -51 -55 -62 -72 0
-3 -4 -5 -13 -43 -44 -52 -55 -63 -73 0
-3 -4 -5 -14 -43 -44 -53 -55 -64 -74 0
-3 -4 -5 -15 -43 -44 -54 -55 -65 -75 0
-3 -4 -6 -7 -43 -45 -46 -56 -57 -76 0
-3 -4 -6 -8 -43 -45 -47 -56 -58 -77 0
-3 -4 -6 -9 -43 -45 -48 -56 -59 -78 0
-3 -4 -6 -10 -43 -45 -49 -56 -60 -79 0
-3 -4 -6 -11 -43 -45 -50 -56 -61 -80 0
-3 -4 -6 -12 -43 -45 -51 -56 -62 -81 0
-3 -4 -6 -13 -43 -45 -52 -56 -63 -82 0
-3 -4 -6 -14 -43 -45 -53 -56 -64 -83 0
-3 -4 -6 -15 -43 -45 -54 -56 -65 -84 0
-3 -4 -7 -8 -43 -46 -47 -57 -58 -85 0
-3 -4 -7 -9 -43 -46 -48 -57 -59 -86 0
-3 -4 -7 -10 -43 -46 -49 -57 -60 -87 0
-3 -4 -7 -11 -43 -46 -50 -57 -61 -88 0
-3 -4 -7 -12 -43 -46 -51 -57 -62 -89 0
-3 -4 -7 -13 -43 -46 -52 -57 -63 -90 0
-3 -4 -7 -14 -43 -46 -53 -57 -64 -91 0
-3 -4 -7 -15 -43 -46 -54 -57 -65 -92 0
-3 -4 -8 -9 -43 -47 -48 -58 -59 -93 0
-3 -4 -8 -10 -43 -47 -49 -58 -60 -94 0
-3 -4 -8 -11 -43 -47 -50 -58 -61 -95 0
-3 -4 -8 -12 -43 -47 -51 -58 -62 -96 0
-3 -4 -8 -13 -43 -47 -52 -58 -63 -97 0
-3 -4 -8 -14 -43 -47 -53 -58 -64 -98 0
-3 -4 -8 -15 -43 -47 -54 -58 -65 -99 0
-3 -4 -9 -10 -43 -48 -49 -59 -60 -100 0
-3 -4 -9 -11 -43 -48 -50 -59 -61 -101 0
-3 -4 -9 -12 -43 -48 -51 -59 -62 -102 0
-3 -4 -9 -13 -43 -48 -52 -59 -63 -103 0
-3 -4 -9 -14 -43 -48 -53 -59 -64 -104 0
-3 -4 -9 -15 -43 -48 -54 -59 -65 -105 0
-3 -4 -10 -11 -43 -49 -50 -60 -61 -106 0
-3 -4 -10 -12 -43 -49 -51 -60 -62 -107 0
-3 -4 -10 -13 -43 -49 -52 -60 -63 -108 0
-3 -4 -10 -14 -43 -49 -53 -60 -64 -109 0
-3 -4 -10 -15 -43 -49 -54 -60 -65 -110 0
-3 -4 -11 -12 -43 -50 -51 -61 -62 -111 0
-3 -4 -11 -13 -43 -50 -52 -61 -63 -112 0
-3 -4 -11 -14 -43 -50 -53 -61 -64 -113 0
-3 -4 -11 -15 -43 -50 -54 -61 -65 -114 0
-3 -4 -12 -13 -43 -51 -52 -62 -63 -115 0
-3 -4 -12 -14 -43 -51 -53 -62 -64 -116 0
-3 -4 -12 -15 -43 -51 -54 -62 -65 -117 0
-3 -4 -13 -14 -43 -52 -53 -63 -64 -118 0
-3 -4 -13 -15 -43 -52 -54 -63 -65 -119 0
-3 -4 -14 -15 -43 -53 -54 -64 -65 -120 0
-3 -5 -6 -7 -44 -45 -46 -66 -67 -76 0
-3 -5 -6 -8 -44 -45 -47 -66 -68 -77 0
-3 -5 -6 -9 -44 -45 -48 -66 -69 -78 0
-3 -5 -6 -10 -44 -45 -49 -66 -70 -79 0
-3 -5 -6 -11 -44 -45 -50 -66 -71 -80 0
-3 -5 -6 -12 -44 -45 -51 -66 -72 -81 0
-3 -5 -6 -13 -44 -45 -52 -66 -73 -82 0
-3 -5 -6 -14 -44 -45 -53 -66 -74 -83 0
-3 -5 -6 -15 -44 -45 -54 -66 -75 -84 0
-3 -5 -7 -8 -44 -46 -47 -67 -68 -85 0
-3 -5 -7 -9 -44 -46 -48 -67 -69 -86 0
-3 -5 -7 -10 -44 -46 -49 -67 -70 -87 0
-3 -5 -7 -11 -44 -46 -50 -67 -71 -88 0
-3 -5 -7 -12 -44 -46 -51 -67 -72 -89 0
-3 -5 -7 -13 -44 -46 -52 -67 -73 -90 0
-3 -5 -7 -14 -44 -46 -53 -67 -74 -91 0
-3 -5 -7 -15 -44 -46 -54 -67 -75 -92 0
-3 -5 -8 -9 -44 -47 -48 -68 -69 -93 0
-3 -5 -8 -10 -44 -47 -49 -68 -70 -94 0
-3 -5 -8 -11 -44 -47 -50 -68 -71 -95 0
-3 -5 -8 -12 -44 -47 -51 -68 -72 -96 0
-3 -5 -8 -13 -44 -47 -52 -68 -73 -97 0
-3 -5 -8 -14 -44 -47 -53 -68 -74 -98 0
-3 -5 -8 -15 -44 -47 -54 -68 -75 -99 0
-3 -5 -9 -10 -44 -48 -49 -69 -70 -100 0
-3 -5 -9 -11 -44 -48 -50 -69 -71 -101 0
-3 -5 -9 -12 -44 -48 -51 -69 -72 -102 0
-3 -5 -9 -13 -44 -48 -52 -69 -73 -103 0
-3 -5 -9 -14 -44 -48 -53 -69 -74 -104 0
-3 -5 -9 -15 -44 -48 -54 -69 -75 -105 0
-3 -5 -10 -11 -44 -49 -50 -70 -71 -106 0
-3 -5 -10 -12 -44 -49 -51 -70 -72 -107 0
-3 -5 -10 -13 -44 -49 -52 -70 -73 -108 0
-3 -5 -10 -14 -44 -49 -53 -70 -74 -109 0
-3 -5 -10 -15 -44 -49 -54 -70 -75 -110 0
-3 -5 -11 -12 -44 -50 -51 -71 -72 -111 0
-3 -5 -11 -13 -44 -50 -52 -71 -73 -112 0
-3 -5 -11 -14 -44 -50 -53 -71 -74 -113 0
-3 -5 -11 -15 -44 -50 -54 -71 -75 -114 0
-3 -5 -12 -13 -44 -51 -52 -72 -73 -115 0
-3 -5 -12 -14 -44 -51 -53 -72 -74 -116 0
-3 -5 -12 -15 -44 -51 -54 -72 -75 -117 0
-3 -5 -13 -14 -44 -52 -53 -73 -74 -118 0
-3 -5 -13 -15 -44 -52 -54 -73 -75 -119 0
-3 -5 -14 -15 -44 -53 -54 -74 -75 -120 0
-3 -6 -7 -8 -45 -46 -47 -76 -77 -85 0
-3 -6 -7 -9 -45 -46 -48 -76 -78 -86 0
-3 -6 -7 -10 -45 -46 -49 -76 -79 -87 0
-3 -6 -7 -11 -45 -46 -50 -76 -80 -88 0
-3 -6 -7 -12 -45 -46 -51 -76 -81 -89 0
-3 -6 -7 -13 -45 -46 -52 -76 -82 -90 0
-3 -6 -7 -14 -45 -46 -53 -76 -83 -91 0
-3 -6 -7 -15 -45 -46 -54 -76 -84 -92 0
-3 -6 -8 -9 -45 -47 -48 -77 -78 -93 0
-3 -6 -8 -10 -45 -47 -49 -77 -79 -94 0
-3 -6 -8 -11 -45 -47 -50 -77 -80 -95 0
-3 -6 -8 -12 -45 -47 -51 -77 -81 -96 0
-3 -6 -8 -13 -45 -47 -52 -77 -82 -97 0
-3 -6 -8 -14 -45 -47 -53 -77 -83 -98 0
-3 -6 -8 -15 -45 -47 -54 -77 -84 -99 0
-3 -6 -9 -10 -45 -48 -49 -78 -79 -100 0
-3 -6 -9 -11 -45 -48 -50 -78 -80 -101 0
-3 -6 -9 -12 -45 -48 -51 -78 -81 -102 0
-3 -6 -9 -13 -45 -48 -52 -78 -82 -103 0
-3 -6 -9 -14 -45 -48 -53 -78 -83 -104 0
-3 -6 -9 -15 -45 -48 -54 -78 -84 -105 0
-3 -6 -10 -11 -45 -49 -50 -79 -80 -106 0
-3 -6 -10 -12 -45 -49 -51 -79 -81 -107 0
-3 -6 -10 -13 -45 -49 -52 -79 -82 -108 0
-3 -6 -10 -14 -45 -49 -53 -79 -83 -109 0
-3 -6 -10 -15 -45 -49 -54 -79 -84 -110 0
-3 -6 -11 -12 -45 -50 -51 -80 -81 -111 0
-3 -6 -11 -13 -45 -50 -52 -80 -82 -112 0
-3 -6 -11 -14 -45 -50 -53 -80 -83 -113 0
-3 -6 -11 -15 -45 -50 -54 -80 -84 -114 0
-3 -6 -12 -13 -45 -51 -52 -81 -82 -115 0
-3 -6 -12 -14 -45 -51 -53 -81 -83 -116 0
-3 -6 -12 -15 -45 -51 -54 -81 -84 -117 0
-3 -6 -13 -14 -45 -52 -53 -82 -83 -118 0
-3 -6 -13 -15 -45 -52 -54 -82 -84 -119 0
-3 -6 -14 -15 -45 -53 -54 -83 -84 -120 0
-3 -7 -8 -9 -46 -47 -48 -85 -86 -93 0
-3 -7 -8 -10 -46 -47 -49 -85 -87 -94 0
-3 -7 -8 -11 -46 -47 -50 -85 -88 -95 0
-3 -7 -8 -12 -46 -47 -51 -85 -89 -96 0
-3 -7 -8 -13 -46 -47 -52 -85 -90 -97 0
-3 -7 -8 -14 -46 -47 -53 -85 -91 -98 0
-3 -7 -8 -15 -46 -47 -54 -85 -92 -99 0
-3 -7 -9 -10 -46 -48 -49 -86 -87 -100 0
-3 -7 -9 -11 -46 -48 -50 -86 -88 -101 0
-3 -7 -9 -12 -46 -48 -51 -86 -89 -102 0
-3 -7 -9 -13 -46 -48 -52 -86 -90 -103 0
-3 -7 -9 -14 -46 -48 -53 -86 -91 -104 0
-3 -7 -9 -15 -46 -48 -54 -86 -92 -105 0
-3 -7 -10 -11 -46 -49 -50 -87 -88 -106 0
-3 -7 -10 -12 -46 -49 -51 -87 -89 -107 0
-3 -7 -10 -13 -46 -49 -52 -87 -90 -108 0
-3 -7 -10 -14 -46 -49 -53 -87 -91 -109 0
-3 -7 -10 -15 -46 -49 -54 -87 -92 -110 0
-3 -7 -11 -12 -46 -50 -51 -88 -89 -111 0
-3 -7 -11 -13 -46 -50 -52 -88 -90 -112 0
-3 -7 -11 -14 -46 -50 -53 -88 -91 -113 0
-3 -7 -11 -15 -46 -50 -54 -88 -92 -114 0
-3 -7 -12 -13 -46 -51 -52 -89 -90 -115 0
-3 -7 -12 -14 -46 -51 -53 -89 -91 -116 0
-3 -7 -12 -15 -46 -51 -54 -89 -92 -117 0
-3 -7 -13 -14 -46 -52 -53 -90 -91 -118 0
-3 -7 -13 -15 -46 -52 -54 -90 -92 -119 0
-3 -7 -14 -15 -46 -53 -54 -91 -92 -120 0
-3 -8 -9 -10 -47 -48 -49 -93 -94 -100 0
-3 -8 -9 -11 -47 -48 -50 -93 -95 -101 0
-3 -8 -9 -12 -47 -48 -51 -93 -96 -102 0
-3 -8 -9 -13 -47 -48 -52 -93 -97 -103 0
-3 -8 -9 -14 -47 -48 -53 -93 -98 -104 0
-3 -8 -9 -15 -47 -48 -54 -93 -99 -105 0
-3 -8 -10 -11 -47 -49 -50 -94 -95 -106 0
-3 -8 -10 -12 -47 -49 -51 -94 -96 -107 0
-3 -8 -10 -13 -47 -49 -52 -94 -97 -108 0
-3 -8 -10 -14 -47 -49 -53 -94 -98 -109 0
-3 -8 -10 -15 -47 -49 -54 -94 -99 -110 0
-3 -8 -11 -12 -47 -50 -51 -95 -96 -111 0
-3 -8 -11 -13 -47 -50 -52 -95 -97 -112 0
-3 -8 -11 -14 -47 -50 -53 -95 -98 -113 0
-3 -8 -11 -15 -47 -50 -54 -95 -99 -114 0
-3 -8 -12 -13 -47 -51 -52 -96 -97 -115 0
-3 -8 -12 -14 -47 -51 -53 -96 -98 -116 0
-3 -8 -12 -15 -47 -51 -54 -96 -99 -117 0
-3 -8 -13 -14 -47 -52 -53 -97 -98 -118 0
-3 -8 -13 -15 -47 -52 -54 -97 -99 -119 0
-3 -8 -14 -15 -47 -53 -54 -98 -99 -120 0
-3 -9 -10 -11 -48 -49 -50 -100 -101 -106 0
-3 -9 -10 -12 -48 -49 -51 -100 -102 -107 0
-3 -9 -10 -13 -48 -49 -52 -100 -103 -108 0
-3 -9 -10 -14 -48 -49 -53 -100 -104 -109 0
-3 -9 -10 -15 -48 -49 -54 -100 -105 -110 0
-3 -9 -11 -12 -48 -50 -51 -101 -102 -111 0
-3 -9 -11 -13 -48 -50 -52 -101 -103 -112 0
-3 -9 -11 -14 -48 -50 -53 -101 -104 -113 0
-3 -9 -11 -15 -48 -50 -54 -101 -105 -114 0
-3 -9 -12 -13 -48 -51 -52 -102 -103 -115 0
-3 -9 -12 -14 -48 -51 -53 -102 -104 -116 0
-3 -9 -12 -15 -48 -51 -54 -102 -105 -117 0
-3 -9 -13 -14 -48 -52 -53 -103 -104 -118 0
-3 -9 -13 -15 -48 -52 -54 -103 -105 -119 0
-3 -9 -14 -15 -48 -53 -54 -104 -105 -120 0
-3 -10 -11 -12 -49 -50 -51 -106 -107 -111 0
-3 -10 -11 -13 -49 -50 -52 -106 -108 -112 0
-3 -10 -11 -14 -49 -50 -53 -106 -109 -113 0
-3 -10 -11 -15 -49 -50 -54 -106 -110 -114 0
-3 -10 -12 -13 -49 -51 -52 -107 -108 -115 0
-3 -10 -12 -14 -49 -51 -53 -107 -109 -116 0
-3 -10 -12 -15 -49 -51 -54 -107 -110 -117 0
-3 -10 -13 -14 -49 -52 -53 -108 -109 -118 0
-3 -10 -13 -15 -49 -52 -54 -108 -110 -119 0
-3 -10 -14 -15 -49 -53 -54 -109 -110 -120 0
-3 -11 -12 -13 -50 -51 -52 -111 -112 -115 0
-3 -11 -12 -14 -50 -51 -53 -111 -113 -116 0
-3 -11 -12 -15 -50 -51 -54 -111 -114 -117 0
-3 -11 -13 -14 -50 -52 -53 -112 -113 -118 0
-3 -11 -13 -15 -50 -52 -54 -112 -114 -119 0
-3 -11 -14 -15 -50 -53 -54 -113 -114 -120 0
-3 -12 -13 -14 -51 -52 -53 -115 -116 -118 0
-3 -12 -13 -15 -51 -52 -54 -115 -117 -119 0
-3 -12 -14 -15 -51 -53 -54 -116 -117 -120 0
-3 -13 -14 -15 -52 -53 -54 -118 -119 -120 0
-4 -5 -6 -7 -55 -56 -57 -66 -67 -76 0
-4 -5 -6 -8 -55 -56 -58 -66 -68 -77 0
-4 -5 -6 -9 -55 -56 -59 -66 -69 -78 0
-4 -5 -6 -10 -55 -56 -60 -66 -70 -79 0
-4 -5 -6 -11 -55 -56 -61 -66 -71 -80 0
-4 -5 -6 -12 -55 -56 -62 -66 -72 -81 0
-4 -5 -6 -13 -55 -56 -63 -66 -73 -82 0
-4 -5 -6 -14 -55 -56 -64 -66 -74 -83 0
-4 -5 -6 -15 -55 -56 -65 -66 -75 -84 0
-4 -5 -7 -8 -55 -57 -58 -67 -68 -85 0
-4 -5 -7 -9 -55 -57 -59 -67 -69 -86 0
-4 -5 -7 -10 -55 -57 -60 -67 -70 -87 0
-4 -5 -7 -11 -55 -57 -61 -67 -71 -88 0
-4 -5 -7 -12 -55 -57 -62 -67 -72 -89 0
-4 -5 -7 -13 -55 -57 -63 -67 -73 -90 0
-4 -5 -7 -14 -55 -57 -64 -67 -74 -91 0
-4 -5 -7 -15 -55 -57 -65 -67 -75 -92 0
-4 -5 -8 -9 -55 -58 -59 -68 -69 -93 0
-4 -5 -8 -10 -55 -58 -60 -68 -70 -94 0
-4 -5 -8 -11 -55 -58 -61 -68 -71 -95 0
-4 -5 -8 -12 -55 -58 -62 -68 -72 -96 0
-4 -5 -8 -13 -55 -58 -63 -68 -73 -97 0
-4 -5 -8 -14 -55 -58 -64 -68 -74 -98 0
-4 -5 -8 -15 -55 -58 -65 -68 -75 -99 0
-4 -5 -9 -10 -55 -59 -60 -69 -70 -100 0
-4 -5 -9 -11 -55 -59 -61 -69 -71 -101 0
-4 -5 -9 -12 -55 -59 -62 -69 -72 -102 0
-4 -5 -9 -13 -55 -59 -63 -69 -73 -103 0
-4 -5 -9 -14 -55 -59 -64 -69 -74 -104 0
-4 -5 -9 -15 -55 -59 -65 -69 -75 -105 0
-4 -5 -10 -11 -55 -60 -61 -70 -71 -106 0
-4 -5 -10 -12 -55 -60 -62 -70 -72 -107 0
-4 -5 -10 -13 -55 -60 -63 -70 -73 -108 0
-4 -5 -10 -14 -55 -60 -64 -70 -74 -109 0
-4 -5 -10 -15 -55 -60 -65 -70 -75 -110 0
-4 -5 -11 -12 -55 -61 -62 -71 -72 -111 0
-4 -5 -11 -13 -55 -61 -63 -71 -73 -112 0
-4 -5 -11 -14 -55 -61 -64 -71 -74 -113 0
-4 -5 -11 -15 -55 -61 -65 -71 -75 -114 0
-4 -5 -12 -13 -55 -62 -63 -72 -73 -115 0
-4 -5 -12 -14 -55 -62 -64 -72 -74 -116 0
-4 -5 -12 -15 -55 -62 -65 -72 -75 -117 0
-4 -5 -13 -14 -55 -63 -64 -73 -74 -118 0
-4 -5 -13 -15 -55 -63 -65 -73 -75 -119 0
-4 -5 -14 -15 -55 -64 -65 -74 -75 -120 0
-4 -6 -7 -8 -56 -57 -58 -76 -77 -85 0
-4 -6 -7 -9 -56 -57 -59 -76 -78 -86 0
-4 -6 -7 -10 -56 -57 -60 -76 -79 -87 0
-4 -6 -7 -11 -56 -57 -61 -76 -80 -88 0
-4 -6 -7 -12 -56 -57 -62 -76 -81 -89 0
-4 -6 -7 -13 -56 -57 -63 -76 -82 -90 0
-4 -6 -7 -14 -56 -57 -64 -76 -83 -91 0
-4 -6 -7 -15 -56 -57 -65 -76 -84 -92 0
-4 -6 -8 -9 -56 -58 -59 -77 -78 -93 0
-4 -6 -8 -10 -56 -58 -60 -77 -79 -94 0
-4 -6 -8 -11 -56 -58 -61 -77 -80 -95 0
-4 -6 -8 -12 -56 -58 -62 -77 -81 -96 0
-4 -6 -8 -13 -56 -58 -63 -77 -82 -97 0
-4 -6 -8 -14 -56 -58 -64 -77 -83 -98 0
-4 -6 -8 -15 -56 -58 -65 -77 -84 -99 0
-4 -6 -9 -10 -56 -59 -60 -78 -79 -100 0
-4 -6 -9 -11 -56 -59 -61 -78 -80 -101 0
-4 -6 -9 -12 -56 -59 -62 -78 -81 -102 0
-4 -6 -9 -13 -56 -59 -63 -78 -82 -103 0
-4 -6 -9 -14 -56 -59 -64 -78 -83 -104 0
-4 -6 -9 -15 -56 -59 -65 -78 -84 -105 0
-4 -6 -10 -11 -56 -60 -61 -79 -80 -106 0
-4 -6 -10 -12 -56 -60 -62 -79 -81 -107 0
-4 -6 -10 -13 -56 -60 -63 -79 -82 -108 0
-4 -6 -10 -14 -56 -60 -64 -79 -83 -109 0
-4 -6 -10 -15 -56 -60 -65 -79 -84 -110 0
-4 -6 -11 -12 -56 -61 -62 -80 -81 -111 0
-4 -6 -11 -13 -56 -61 -63 -80 -82 -112 0
-4 -6 -11 -14 -56 -61 -64 -80 -83 -113 0
-4 -6 -11 -15 -56 -61 -65 -80 -84 -114 0
-4 -6 -12 -13 -56 -62 -63 -81 -82 -115 0
-4 -6 -12 -14 -56 -62 -64 -81 -83 -116 0
-4 -6 -12 -15 -56 -62 -65 -81 -84 -117 0
-4 -6 -13 -14 -56 -63 -64 -82 -83 -118 0
-4 -6 -13 -15 -56 -63 -65 -82 -84 -119 0
-4 -6 -14 -15 -56 -64 -65 -83 -84 -120 0
-4 -7 -8 -9 -57 -58 -59 -85 -86 -93 0
-4 -7 -8 -10 -57 -58 -60 -85 -87 -94 0
-4 -7 -8 -11 -57 -58 -61 -85 -88 -95 0
-4 -7 -8 -12 -57 -58 -62 -85 -89 -96 0
-4 -7 -8 -13 -57 -58 -63 -85 -90 -97 0
-4 -7 -8 -14 -57 -58 -64 -85 -91 -98 0
-4 -7 -8 -15 -57 -58 -65 -85 -92 -99 0
-4 -7 -9 -10 -57 -59 -60 -86 -87 -100 0
-4 -7 -9 -11 -57 -59 -61 -86 -88 -101 0
-4 -7 -9 -12 -57 -59 -62 -86 -89 -102 0
-4 -7 -9 -13 -57 -59 -63 -86 -90 -103 0
-4 -7 -9 -14 -57 -59 -64 -86 -91 -104 0
-4 -7 -9 -15 -57 -59 -65 -86 -92 -105 0
-4 -7 -10 -11 -57 -60 -61 -87 -88 -106 0
-4 -7 -10 -12 -57 -60 -62 -87 -89 -107 0
-4 -7 -10 -13 -57 -60 -63 -87 -90 -108 0
-4 -7 -10 -14 -57 -60 -64 -87 -91 -109 0
-4 -7 -10 -15 -57 -60 -65 -87 -92 -110 0
-4 -7 -11 -12 -57 -61 -62 -88 -89 -111 0
-4 -7 -11 -13 -57 -61 -63 -88 -90 -112 0
-4 -7 -11 -14 -57 -61 -64 -88 -91 -113 0
-4 -7 -11 -15 -57 -61 -65 -88 -92 -114 0
-4 -7 -12 -13 -57 -62 -63 -89 -90 -115 0
-4 -7 -12 -14 -57 -62 -64 -89 -91 -116 0
-4 -7 -12 -15 -57 -62 -65 -89 -92 -117 0
-4 -7 -13 -14 -57 -63 -64 -90 -91 -118 0
-4 -7 -13 -15 -57 -63 -65 -90 -92 -119 0
-4 -7 -14 -15 -57 -64 -65 -91 -92 -120 0
-4 -8 -9 -10 -58 -59 -60 -93 -94 -100 0
-4 -8 -9 -11 -58 -59 -61 -93 -95 -101 0
-4 -8 -9 -12 -58 -59 -62 -93 -96 -102 0
-4 -8 -9 -13 -58 -59 -63 -93 -97 -103 0
-4 -8 -9 -14 -58 -59 -64 -93 -98 -104 0
-4 -8 -9 -15 -58 -59 -65 -93 -99 -105 0
-4 -8 -10 -11 -58 -60 -61 -94 -95 -106 0
-4 -8 -10 -12 -58 -60 -62 -94 -96 -107 0
-4 -8 -10 -13 -58 -60 -63 -94 -97 -108 0
-4 -8 -10 -14 -58 -60 -64 -94 -98 -109 0
-4 -8 -10 -15 -58 -60 -65 -94 -99 -110 0
-4 -8 -11 -12 -58 -61 -62 -95 -96 -111 0
-4 -8 -11 -13 -58 -61 -63 -95 -97 -112 0
-4 -8 -11 -14 -58 -61 -64 -95 -98 -113 0
-4 -8 -11 -15 -58 -61 -65 -95 -99 -114 0
-4 -8 -12 -13 -58 -62 -63 -96 -97 -115 0
-4 -8 -12 -14 -58 -62 -64 -96 -98 -116 0
-4 -8 -12 -15 -58 -62 -65 -96 -99 -117 0
-4 -8 -13 -14 -58 -63 -64 -97 -98 -118 0
-4 -8 -13 -15 -58 -63 -65 -97 -99 -119 0
-4 -8 -14 -15 -58 -64 -65 -98 -99 -120 0
-4 -9 -10 -11 -59 -60 -61 -100 -101 -106 0
-4 -9 -10 -12 -59 -60 -62 -100 -102 -107 0
-4 -9 -10 -13 -59 -60 -63 -100 -103 -108 0
-4 -9 -10 -14 -59 -60 -64 -100 -104 -109 0
-4 -9 -10 -15 -59 -60 -65 -100 -105 -110 0
-4 -9 -11 -12 -59 -61 -62 -101 -102 -111 0
-4 -9 -11 -13 -59 -61 -63 -101 -103 -112 0
-4 -9 -11 -14 -59 -61 -64 -101 -104 -113 0
-4 -9 -11 -15 -59 -61 -65 -101 -105 -114 0
-4 -9 -12 -13 -59 -62 -63 -102 -103 -115 0
-4 -9 -12 -14 -59 -62 -64 -102 -104 -116 0
-4 -9 -12 -15 -59 -62 -65 -102 -105 -117 0
-4 -9 -13 -14 -59 -63 -64 -103 -104 -118 0
-4 -9 -13 -15 -59 -63 -65 -103 -105 -119 0
-4 -9 -14 -15 -59 -64 -65 -104 -105 -120 0
-4 -10 -11 -12 -60 -61 -62 -106 -107 -111 0
-4 -10 -11 -13 -60 -61 -63 -106 -108 -112 0
-4 -10 -11 -14 -60 -61 -64 -106 -109 -113 0
-4 -10 -11 -15 -60 -61 -65 -106 -110 -114 0
-4 -10 -12 -13 -60 -62 -63 -107 -108 -115 0
-4 -10 -12 -14 -60 -62 -64 -107 -109 -116 0
-4 -10 -12 -15 -60 -62 -65 -107 -110 -117 0
-4 -10 -13 -14 -60 -63 -64 -108 -109 -118 0
-4 -10 -13 -15 -60 -63 -65 -108 -110 -119 0
-4 -10 -14 -15 -60 -64 -65 -109 -110 -120 0
-4 -11 -12 -13 -61 -62 -63 -111 -112 -115 0
-4 -11 -12 -14 -61 -62 -64 -111 -113 -116 0
-4 -11 -12 -15 -61 -62 -65 -111 -114 -117 0
-4 -11 -13 -14 -61 -63 -64 -112 -113 -118 0
-4 -11 -13 -15 -61 -63 -65 -112 -114 -119 0
-4 -11 -14 -15 -61 -64 -65 -113 -114 -120 0
-4 -12 -13 -14 -62 -63 -64 -115 -116 -118 0
-4 -12 -13 -15 -62 -63 -65 -115 -117 -119 0
-4 -12 -14 -15 -62 -64 -65 -116 -117 -120 0
-4 -13 -14 -15 -63 -64 -65 -118 -119 -120 0
-5 -6 -7 -8 -66 -67 -68 -76 -77 -85 0
-5 -6 -7 -9 -66 -67 -69 -76 -78 -86 0
-5 -6 -7 -10 -66 -67 -70 -76 -79 -87 0
-5 -6 -7 -11 -66 -67 -71 -76 -80 -88 0
-5 -6 -7 -12 -66 -67 -72 -76 -81 -89 0
-5 -6 -7 -13 -66 -67 -73 -76 -82 -90 0
-5 -6 -7 -14 -66 -67 -74 -76 -83 -91 0
-5 -6 -7 -15 -66 -67 -75 -76 -84 -92 0
-5 -6 -8 -9 -66 -68 -69 -77 -78 -93 0
-5 -6 -8 -10 -66 -68 -70 -77 -79 -94 0
-5 -6 -8 -11 -66 -68 -71 -77 -80 -95 0
-5 -6 -8 -12 -66 -68 -72 -77 -81 -96 0
-5 -6 -8 -13 -66 -68 -73 -77 -82 -97 0
-5 -6 -8 -14 -66 -68 -74 -77 -83 -98 0
-5 -6 -8 -15 -66 -68 -75 -77 -84 -99 0
-5 -6 -9 -10 -66 -69 -70 -78 -79 -100 0
-5 -6 -9 -11 -66 -69 -71 -78 -80 -101 0
-5 -6 -9 -12 -66 -69 -72 -78 -81 -102 0
-5 -6 -9 -13 -66 -69 -73 -78 -82 -103 0
-5 -6 -9 -14 -66 -69 -74 -78 -83 -104 0
-5 -6 -9 -15 -66 -69 -75 -78 -84 -105 0
-5 -6 -10 -11 -66 -70 -71 -79 -80 -106 0
-5 -6 -10 -12 -66 -70 -72 -79 -81 -107 0
-5 -6 -10 -13 -66 -70 -73 -79 -82 -108 0
-5 -6 -10 -14 -66 -70 -74 -79 -83 -109 0
-5 -6 -10 -15 -66 -70 -75 -79 -84 -110 0
-5 -6 -11 -12 -66 -71 -72 -80 -81 -111 0
-5 -6 -11 -13 -66 -71 -73 -80 -82 -112 0
-5 -6 -11 -14 -66 -71 -74 -80 -83 -113 0
-5 -6 -11 -15 -66 -71 -75 -80 -84 -114 0
-5 -6 -12 -13 -66 -72 -73 -81 -82 -115 0
-5 -6 -12 -14 -66 -72 -74 -81 -83 -116 0
-5 -6 -12 -15 -66 -72 -75 -81 -84 -117 0
-5 -6 -13 -14 -66 -73 -74 -82 -83 -118 0
-5 -6 -13 -15 -66 -73 -75 -82 -84 -119 0
-5 -6 -14 -15 -66 -74 -75 -83 -84 -120 0
-5 -7 -8 -9 -67 -68 -69 -85 -86 -93 0
-5 -7 -8 -10 -67 -68 -70 -85 -87 -94 0
-5 -7 -8 -11 -67 -68 -71 -85 -88 -95 0
-5 -7 -8 -12 -67 -68 -72 -85 -89 -96 0
-5 -7 -8 -13 -67 -68 -73 -85 -90 -97 0
-5 -7 -8 -14 -67 -68 -74 -85 -91 -98 0
-5 -7 -8 -15 -67 -68 -75 -85 -92 -99 0
-5 -7 -9 -10 -67 -69 -70 -86 -87 -100 0
-5 -7 -9 -11 -67 -69 -71 -86 -88 -101 0
-5 -7 -9 -12 -67 -69 -72 -86 -89 -102 0
-5 -7 -9 -13 -67 -69 -73 -86 -90 -103 0
-5 -7 -9 -14 -67 -69 -74 -86 -91 -104 0
-5 -7 -9 -15 -67 -69 -75 -86 -92 -105 0
-5 -7 -10 -11 -67 -70 -71 -87 -88 -106 0
-5 -7 -10 -12 -67 -70 -72 -87 -89 -107 0
-5 -7 -10 -13 -67 -70 -73 -87 -90 -108 0
-5 -7 -10 -14 -67 -70 -74 -87 -91 -109 0
-5 -7 -10 -15 -67 -70 -75 -87 -92 -110 0
-5 -7 -11 -12 -67 -71 -72 -88 -89 -111 0
-5 -7 -11 -13 -67 -71 -73 -88 -90 -112 0
-5 -7 -11 -14 -67 -71 -74 -88 -91 -113 0
-5 -7 -11 -15 -67 -71 -75 -88 -92 -114 0
-5 -7 -12 -13 -67 -72 -73 -89 -90 -115 0
-5 -7 -12 -14 -67 -72 -74 -89 -91 -116 0
-5 -7 -12 -15 -67 -72 -75 -89 -92 -117 0
-5 -7 -13 -14 -67 -73 -74 -90 -91 -118 0
-5 -7 -13 -15 -67 -73 -75 -90 -92 -119 0
-5 -7 -14 -15 -67 -74 -75 -91 -92 -120 0
-5 -8 -9 -10 -68 -69 -70 -93 -94 -100 0
-5 -8 -9 -11 -68 -69 -71 -93 -95 -101 0
-5 -8 -9 -12 -68 -69 -72 -93 -96 -102 0
-5 -8 -9 -13 -68 -69 -73 -93 -97 -103 0
-5 -8 -9 -14 -68 -69 -74 -93 -98 -104 0
-5 -8 -9 -15 -68 -69 -75 -93 -99 -105 0
-5 -8 -10 -11 -68 -70 -71 -94 -95 -106 0
-5 -8 -10 -12 -68 -70 -72 -94 -96 -107 0
-5 -8 -10 -13 -68 -70 -73 -94 -97 -108 0
-5 -8 -10 -14 -68 -70 -74 -94 -98 -109 0
-5 -8 -10 -15 -68 -70 -75 -94 -99 -110 0
-5 -8 -11 -12 -68 -71 -72 -95 -96 -111 0
-5 -8 -11 -13 -68 -71 -73 -95 -97 -112 0
-5 -8 -11 -14 -68 -71 -74 -95 -98 -113 0
-5 -8 -11 -15 -68 -71 -75 -95 -99 -114 0
-5 -8 -12 -13 -68 -72 -73 -96 -97 -115 0
-5 -8 -12 -14 -68 -72 -74 -96 -98 -116 0
-5 -8 -12 -15 -68 -72 -75 -96 -99 -117 0
-5 -8 -13 -14 -68 -73 -74 -97 -98 -118 0
-5 -8 -13 -15 -68 -73 -75 -97 -99 -119 0
-5 -8 -14 -15 -68 -74 -75 -98 -99 -120 0
-5 -9 -10 -11 -69 -70 -71 -100 -101 -106 0
-5 -9 -10 -12 -69 -70 -72 -100 -102 -107 0
-5 -9 -10 -13 -69 -70 -73 -100 -103 -108 0
-5 -9 -10 -14 -69 -70 -74 -100 -104 -109 0
-5 -9 -10 -15 -69 -70 -75 -100 -105 -110 0
-5 -9 -11 -12 -69 -71 -72 -101 -102 -111 0
-5 -9 -11 -13 -69 -71 -73 -101 -103 -112 0
-5 -9 -11 -14 -69 -71 -74 -101 -104 -113 0
-5 -9 -11 -15 -69 -71 -75 -101 -105 -114 0
-5 -9 -12 -13 -69 -72 -73 -102 -103 -115 0
-5 -9 -12 -14 -69 -72 -74 -102 -104 -116 0
-5 -9 -12 -15 -69 -72 -75 -102 -105 -117 0
-5 -9 -13 -14 -69 -73 -74 -103 -104 -118 0
-5 -9 -13 -15 -69 -73 -75 -103 -105 -119 0
-5 -9 -14 -15 -69 -74 -75 -104 -105 -120 0
-5 -10 -11 -12 -70 -71 -72 -106 -107 -111 0
-5 -10 -11 -13 -70 -71 -73 -106 -108 -112 0
-5 -10 -11 -14 -70 -71 -74 -106 -109 -113 0
-5 -10 -11 -15 -70 -71 -75 -106 -110 -114 0
-5 -10 -12 -13 -70 -72 -73 -107 -108 -115 0
-5 -10 -12 -14 -70 -72 -74 -107 -109 -116 0
-5 -10 -12 -15 -70 -72 -75 -107 -110 -117 0
-5 -10 -13 -14 -70 -73 -74 -108 -109 -118 0
-5 -10 -13 -15 -70 -73 -75 -108 -110 -119 0
-5 -10 -14 -15 -70 -74 -75 -109 -110 -120 0
-5 -11 -12 -13 -71 -72 -73 -111 -112 -115 0
-5 -11 -12 -14 -71 -72 -74 -111 -113 -116 0
-5 -11 -12 -15 -71 -72 -75 -111 -114 -117 0
-5 -11 -13 -14 -71 -73 -74 -112 -113 -118 0
-5 -11 -13 -15 -71 -73 -75 -112 -114 -119 0
-5 -11 -14 -15 -71 -74 -75 -113 -114 -120 0
-5 -12 -13 -14 -72 -73 -74 -115 -116 -118 0
-5 -12 -13 -15 -72 -73 -75 -115 -117 -119 0
-5 -12 -14 -15 -72 -74 -75 -116 -117 -120 0
-5 -13 -14 -15 -73 -74 -75 -118 -119 -120 0
-6 -7 -8 -9 -76 -77 -78 -85 -86 -93 0
-6 -7 -8 -10 -76 -77 -79 -85 -87 -94 0
-6 -7 -8 -11 -76 -77 -80 -85 -88 -95 0
-6 -7 -8 -12 -76 -77 -81 -85 -89 -96 0
-6 -7 -8 -13 -76 -77 -82 -85 -90 -97 0
-6 -7 -8 -14 -76 -77 -83 -85 -91 -98 0
-6 -7 -8 -15 -76 -77 -84 -85 -92 -99 0
-6 -7 -9 -10 -76 -78 -79 -86 -87 -100 0
-6 -7 -9 -11 -76 -78 -80 -86 -88 -101 0
-6 -7 -9 -12 -76 -78 -81 -86 -89 -102 0
-6 -7 -9 -13 -76 -78 -82 -86 -90 -103 0
-6 -7 -9 -14 -76 -78 -83 -86 -91 -104 0
-6 -7 -9 -15 -76 -78 -84 -86 -92 -105 0
-6 -7 -10 -11 -76 -79 -80 -87 -88 -106 0
-6 -7 -10 -12 -76 -79 -81 -87 -89 -107 0
-6 -7 -10 -13 -76 -79 -82 -87 -90 -108 0
-6 -7 -10 -14 -76 -79 -83 -87 -91 -109 0
-6 -7 -10 -15 -76 -79 -84 -87 -92 -110 0
-6 -7 -11 -12 -76 -80 -81 -88 -89 -111 0
-6 -7 -11 -13 -76 -80 -82 -88 -90 -112 0
-6 -7 -11 -14 -76 -80 -83 -88 -91 -113 0
-6 -7 -11 -15 -76 -80 -84 -88 -92 -114 0
-6 -7 -12 -13 -76 -81 -82 -89 -90 -115 0
-6 -7 -12 -14 -76 -81 -83 -89 -91 -116 0
-6 -7 -12 -15 -76 -81 -84 -89 -92 -117 0
-6 -7 -13 -14 -76 -82 -83 -90 -91 -118 0
-6 -7 -13 -15 -76 -82 -84 -90 -92 -119 0
-6 -7 -14 -15 -76 -83 -84 -91 -92 -120 0
-6 -8 -9 -10 -77 -78 -79 -93 -94 -100 0
-6 -8 -9 -11 -77 -78 -80 -93 -95 -101 0
-6 -8 -9 -12 -77 -78 -81 -93 -96 -102 0
-6 -8 -9 -13 -77 -78 -82 -93 -97 -103 0
-6 -8 -9 -14 -77 -78 -83 -93 -98 -104 0
-6 -8 -9 -15 -77 -78 -84 -93 -99 -105 0
-6 -8 -10 -11 -77 -79 -80 -94 -95 -106 0
-6 -8 -10 -12 -77 -79 -81 -94 -96 -107 0
-6 -8 -10 -13 -77 -79 -82 -94 -97 -108 0
-6 -8 -10 -14 -77 -79 -83 -94 -98 -109 0
-6 -8 -10 -15 -77 -79 -84 -94 -99 -110 0
-6 -8 -11 -12 -77 -80 -81 -95 -96 -111 0
-6 -8 -11 -13 -77 -80 -82 -95 -97 -112 0
-6 -8 -11 -14 -77 -80 -83 -95 -98 -113 0
-6 -8 -11 -15 -77 -80 -84 -95 -99 -114 0
-6 -8 -12 -13 -77 -81 -82 -96 -97 -115 0
-6 -8 -12 -14 -77 -81 -83 -96 -98 -116 0
-6 -8 -12 -15 -77 -81 -84 -96 -99 -117 0
-6 -8 -13 -14 -77 -82 -83 -97 -98 -118 0
-6 -8 -13 -15 -77 -82 -84 -97 -99 -119 0
-6 -8 -14 -15 -77 -83 -84 -98 -99 -120 0
-6 -9 -10 -11 -78 -79 -80 -100 -101 -106 0
-6 -9 -10 -12 -78 -79 -81 -100 -102 -107 0
-6 -9 -10 -13 -78 -79 -82 -100 -103 -108 0
-6 -9 -10 -14 -78 -79 -83 -100 -104 -109 0
-6 -9 -10 -15 -78 -79 -84 -100 -105 -110 0
-6 -9 -11 -12 -78 -80 -81 -101 -102 -111 0
-6 -9 -11 -13 -78 -80 -82 -101 -103 -112 0
-6 -9 -11 -14 -78 -80 -83 -101 -104 -113 0
-6 -9 -11 -15 -78 -80 -84 -101 -105 -114 0
-6 -9 -12 -13 -78 -81 -82 -102 -103 -115 0
-6 -9 -12 -14 -78 -81 -83 -102 -104 -116 0
-6 -9 -12 -15 -78 -81 -84 -102 -105 -117 0
-6 -9 -13 -14 -78 -82 -83 -103 -104 -118 0
-6 -9 -13 -15 -78 -82 -84 -103 -105 -119 0
-6 -9 -14 -15 -78 -83 -84 -104 -105 -120 0
-6 -10 -11 -12 -79 -80 -81 -106 -107 -111 0
-6 -10 -11 -13 -79 -80 -82 -106 -108 -112 0
-6 -10 -11 -14 -79 -80 -83 -106 -109 -113 0
-6 -10 -11 -15 -79 -80 -84 -106 -110 -114 0
-6 -10 -12 -13 -79 -81 -82 -107 -108 -115 0
-6 -10 -12 -14 -79 -81 -83 -107 -109 -116 0
-6 -10 -12 -15 -79 -81 -84 -107 -110 -117 0
-6 -10 -13 -14 -79 -82 -83 -108 -109 -118 0
-6 -10 -13 -15 -79 -82 -84 -108 -110 -119 0
-6 -10 -14 -15 -79 -83 -84 -109 -110 -120 0
-6 -11 -12 -13 -80 -81 -82 -111 -112 -115 0
-6 -11 -12 -14 -80 -81 -83 -111 -113 -116 0
-6 -11 -12 -15 -80 -81 -84 -111 -114 -117 0
-6 -11 -13 -14 -80 -82 -83 -112 -113 -118 0
-6 -11 -13 -15 -80 -82 -84 -112 -114 -119 0
-6 -11 -14 -15 -80 -83 -84 -113 -114 -120 0
-6 -12 -13 -14 -81 -82 -83 -115 -116 -118 0
-6 -12 -13 -15 -81 -82 -84 -115 -117 -119 0
-6 -12 -14 -15 -81 -83 -84 -116 -117 -120 0
-6 -13 -14 -15 -82 -83 -84 -118 -119 -120 0
-7 -8 -9 -10 -85 -86 -87 -93 -94 -100 0
-7 -8 -9 -11 -85 -86 -88 -93 -95 -101 0
-7 -8 -9 -12 -85 -86 -89 -93 -96 -102 0
-7 -8 -9 -13 -85 -86 -90 -93 -97 -103 0
-7 -8 -9 -14 -85 -86 -91 -93 -98 -104 0
-7 -8 -9 -15 -85 -86 -92 -93 -99 -105 0
-7 -8 -10 -11 -85 -87 -88 -94 -95 -106 0
-7 -8 -10 -12 -85 -87 -89 -94 -96 -107 0
-7 -8 -10 -13 -85 -87 -90 -94 -97 -108 0
-7 -8 -10 -14 -85 -87 -91 -94 -98 -109 0
-7 -8 -10 -15 -85 -87 -92 -94 -99 -110 0
-7 -8 -11 -12 -85 -88 -89 -95 -96 -111 0
-7 -8 -11 -13 -85 -88 -90 -95 -97 -112 0
-7 -8 -11 -14 -85 -88 -91 -95 -98 -113 0
-7 -8 -11 -15 -85 -88 -92 -95 -99 -114 0
-7 -8 -12 -13 -85 -89 -90 -96 -97 -115 0
-7 -8 -12 -14 -85 -89 -91 -96 -98 -116 0
-7 -8 -12 -15 -85 -89 -92 -96 -99 -117 0
-7 -8 -13 -14 -85 -90 -91 -97 -98 -118 0
-7 -8 -13 -15 -85 -90 -92 -97 -99 -119 0
-7 -8 -14 -15 -85 -91 -92 -98 -99 -120 0
-7 -9 -10 -11 -86 -87 -88 -100 -101 -106 0
-7 -9 -10 -12 -86 -87 -89 -100 -102 -107 0
-7 -9 -10 -13 -86 -87 -90 -100 -103 -108 0
-7 -9 -10 -14 -86 -87 -91 -100 -104 -109 0
-7 -9 -10 -15 -86 -87 -92 -100 -105 -110 0
-7 -9 -11 -12 -86 -88 -89 -101 -102 -111 0
-7 -9 -11 -13 -86 -88 -90 -101 -103 -112 0
-7 -9 -11 -14 -86 -88 -91 -101 -104 -113 0
-7 -9 -11 -15 -86 -88 -92 -101 -105 -114 0
-7 -9 -12 -13 -86 -89 -90 -102 -103 -115 0
-7 -9 -12 -14 -86 -89 -91 -102 -104 -116 0
-7 -9 -12 -15 -86 -89 -92 -102 -105 -117 0
-7 -9 -13 -14 -86 -90 -91 -103 -104 -118 0
-7 -9 -13 -15 -86 -90 -92 -103 -105 -119 0
-7 -9 -14 -15 -86 -91 -92 -104 -105 -120 0
-7 -10 -11 -12 -87 -88 -89 -106 -107 -111 0
-7 -10 -11 -13 -87 -88 -90 -106 -108 -112 0
-7 -10 -11 -14 -87 -88 -91 -106 -109 -113 0
-7 -10 -11 -15 -87 -88 -92 -106 -110 -114 0
-7 -10 -12 -13 -87 -89 -90 -107 -108 -115 0
-7 -10 -12 -14 -87 -89 -91 -107 -109 -116 0
-7 -10 -12 -15 -87 -89 -92 -107 -110 -117 0
-7 -10 -13 -14 -87 -90 -91 -108 -109 -118 0
-7 -10 -13 -15 -87 -90 -92 -108 -110 -119 0
-7 -10 -14 -15 -87 -91 -92 -109 -110 -120 0
-7 -11 -12 -13 -88 -89 -90 -111 -112 -115 0
-7 -11 -12 -14 -88 -89 -91 -111 -113 -116 0
-7 -11 -12 -15 -88 -89 -92 -111 -114 -117 0
-7 -11 -13 -14 -88 -90 -91 -112 -113 -118 0
-7 -11 -13 -15 -88 -90 -92 -112 -114 -119 0
-7 -11 -14 -15 -88 -91 -92 -113 -114 -120 0
-7 -12 -13 -14 -89 -90 -91 -115 -116 -118 0
-7 -12 -13 -15 -89 -90 -92 -115 -117 -119 0
-7 -12 -14 -15 -89 -91 -92 -116 -117 -120 0
-7 -13 -14 -15 -90 -91 -92 -118 -119 -120 0
-8 -9 -10 -11 -93 -94 -95 -100 -101 -106 0
-8 -9 -10 -12 -93 -94 -96 -100 -102 -107 0
-8 -9 -10 -13 -93 -94 -97 -100 -103 -108 0
-8 -9 -10 -14 -93 -94 -98 -100 -104 -109 0
-8 -9 -10 -15 -93 -94 -99 -100 -105 -110 0
-8 -9 -11 -12 -93 -95 -96 -101 -102 -111 0
-8 -9 -11 -13 -93 -95 -97 -101 -103 -112 0
-8 -9 -11 -14 -93 -95 -98 -101 -104 -113 0
-8 -9 -11 -15 -93 -95 -99 -101 -105 -114 0
-8 -9 -12 -13 -93 -96 -97 -102 -103 -115 0
-8 -9 -12 -14 -93 -96 -98 -102 -104 -116 0
-8 -9 -12 -15 -93 -96 -99 -102 -105 -117 0
-8 -9 -13 -14 -93 -97 -98 -103 -104 -118 0
-8 -9 -13 -15 -93 -97 -99 -103 -105 -119 0
-8 -9 -14 -15 -93 -98 -99 -104 -105 -120 0
-8 -10 -11 -12 -94 -95 -96 -106 -107 -111 0
-8 -10 -11 -13 -94 -95 -97 -106 -108 -112 0
-8 -10 -11 -14 -94 -95 -98 -106 -109 -113 0
-8 -10 -11 -15 -94 -95 -99 -106 -110 -114 0
-8 -10 -12 -13 -94 -96 -97 -107 -108 -115 0
-8 -10 -12 -14 -94 -96 -98 -107 -109 -116 0
-8 -10 -12 -15 -94 -96 -99 -107 -110 -117 0
-8 -10 -13 -14 -94 -97 -98 -108 -109 -118 0
-8 -10 -13 -15 -94 -97 -99 -108 -110 -119 0
-8 -10 -14 -15 -94 -98 -99 -109 -110 -120 0
-8 -11 -12 -13 -95 -96 -97 -111 -112 -115 0
-8 -11 -12 -14 -95 -96 -98 -111 -113 -116 0
-8 -11 -12 -15 -95 -96 -99 -111 -114 -117 0
-8 -11 -13 -14 -95 -97 -98 -112 -113 -118 0
-8 -11 -13 -15 -95 -97 -99 -112 -114 -119 0
-8 -11 -14 -15 -95 -98 -99 -113 -114 -120 0
-8 -12 -13 -14 -96 -97 -98 -115 -116 -118 0
-8 -12 -13 -15 -96 -97 -99 -115 -117 -119 0
-8 -12 -14 -15 -96 -98 -99 -116 -117 -120 0
-8 -13 -14 -15 -97 -98 -99 -118 -119 -120 0
-9 -10 -11 -12 -100 -101 -102 -106 -107 -111 0
-9 -10 -11 -13 -100 -101 -103 -106 -108 -112 0
-9 -10 -11 -14 -100 -101 -104 -106 -109 -113 0
-9 -10 -11 -15 -100 -101 -105 -106 -110 -114 0
-9 -10 -12 -13 -100 -102 -103 -107 -108 -115 0
-9 -10 -12 -14 -100 -102 -104 -107 -109 -116 0
-9 -10 -12 -15 -100 -102 -105 -107 -110 -117 0
-9 -10 -13 -14 -100 -103 -104 -108 -109 -118 0
-9 -10 -13 -15 -100 -103 -105 -108 -110 -119 0
-9 -10 -14 -15 -100 -104 -105 -109 -110 -120 0
-9 -11 -12 -13 -101 -102 -103 -111 -112 -115 0
-9 -11 -12 -14 -101 -102 -104 -111 -113 -116 0
-9 -11 -12 -15 -101 -102 -105 -111 -114 -117 0
-9 -11 -13 -14 -101 -103 -104 -112 -113 -118 0
-9 -11 -13 -15 -101 -103 -105 -112 -114 -119 0
-9 -11 -14 -15 -101 -104 -105 -113 -114 -120 0
-9 -12 -13 -14 -102 -103 -104 -115 -116 -118 0
-9 -12 -13 -15 -102 -103 -105 -115 -117 -119 0
-9 -12 -14 -15 -102 -104 -105 -116 -117 -120 0
-9 -13 -14 -15 -103 -104 -105 -118 -119 -120 0
-10 -11 -12 -13 -106 -107 -108 -111 -112 -115 0
-10 -11 -12 -14 -106 -107 -109 -111 -113 -116 0
-10 -11 -12 -15 -106 -107 -110 -111 -114 -117 0
-10 -11 -13 -14 -106 -108 -109 -112 -113 -118 0
-10 -11 -13 -15 -106 -108 -110 -112 -114 -119 0
-10 -11 -14 -15 -106 -109 -110 -113 -114 -120 0
-10 -12 -13 -14 -107 -108 -109 -115 -116 -118 0
-10 -12 -13 -15 -107 -108 -110 -115 -117 -119 0
-10 -12 -14 -15 -107 -109 -110 -116 -117 -120 0
-10 -13 -14 -15 -108 -109 -110 -118 -119 -120 0
-11 -12 -13 -14 -111 -112 -113 -115 -116 -118 0
-11 -12 -13 -15 -111 -112 -114 -115 -117 -119 0
-11 -12 -14 -15 -111 -113 -114 -116 -117 -120 0
-11 -13 -14 -15 -112 -113 -114 -118 -119 -120 0
-12 -13 -14 -15 -115 -116 -117 -118 -119 -120 0
-16 -17 -18 -19 -30 -31 -32 -43 -44 -55 0
-16 -17 -18 -20 -30 -31 -33 -43 -45 -56 0
-16 -17 -18 -21 -30 -31 -34 -43 -46 -57 0
-16 -17 -18 -22 -30 -31 -35 -43 -47 -58 0
-16 -17 -18 -23 -30 -31 -36 -43 -48 -59 0
-16 -17 -18 -24 -30 -31 -37 -43 -49 -60 0
-16 -17 -18 -25 -30 -31 -38 -43 -50 -61 0
-16 -17 -18 -26 -30 -31 -39 -43 -51 -62 0
-16 -17 -18 -27 -30 -31 -40 -43 -52 -63 0
-16 -17 -18 -28 -30 -31 -41 -43 -53 -64 0
-16 -17 -18 -29 -30 -31 -42 -43 -54 -65 0
-16 -17 -19 -20 -30 -32 -33 -44 -45 -66 0
-16 -17 -19 -21 -30 -32 -34 -44 -46 -67 0
-16 -17 -19 -22 -30 -32 -35 -44 -47 -68 0
-16 -17 -19 -23 -30 -32 -36 -44 -48 -69 0
-16 -17 -19 -24 -30 -32 -37 -44 -49 -70 0
-16 -17 -19 -25 -30 -32 -38 -44 -50 -71 0
-16 -17 -19 -26 -30 -32 -39 -44 -51 -72 0
-16 -17 -19 -27 -30 -32 -40 -44 -52 -73 0
-16 -17 -19 -28 -30 -32 -41 -44 -53 -74 0
-16 -17 -19 -29 -30 -32 -42 -44 -54 -75 0
-16 -17 -20 -21 -30 -33 -34 -45 -46 -76 0
-16 -17 -20 -22 -30 -33 -35 -45 -47 -77 0
-16 -17 -20 -23 -30 -33 -36 -45 -48 -78 0
-16 -17 -20 -24 -30 -33 -37 -45 -49 -79 0
-16 -17 -20 -25 -30 -33 -38 -45 -50 -80 0
-16 -17 -20 -26 -30 -33 -39 -45 -51 -81 0
-16 -17 -20 -27 -30 -33 -40 -45 -52 -82 0
-16 -17 -20 -28 -30 -33 -41 -45 -53 -83 0
-16 -17 -20 -29 -30 -33 -42 -45 -54 -84 0
-16 -17 -21 -22 -30 -34 -35 -46 -47 -85 0
-16 -17 -21 -23 -30 -34 -36 -46 -48 -86 0
-16 -17 -21 -24 -30 -34 -37 -46 -49 -87 0
-16 -17 -21 -25 -30 -34 -38 -46 -50 -88 0
-16 -17 -21 -26 -30 -34 -39 -46 -51 -89 0
-16 -17 -21 -27 -30 -34 -40 -46 -52 -90 0
-16 -17 -21 -28 -30 -34 -41 -46 -53 -91 0
-16 -17 -21 -29 -30 -34 -42 -46 -54 -92 0
-16 -17 -22 -23 -30 -35 -36 -47 -48 -93 0
-16 -17 -22 -24 -30 -35 -37 -47 -49 -94 0
-16 -17 -22 -25 -30 -35 -38 -47 -50 -95 0
-16 -17 -22 -26 -30 -35 -39 -47 -51 -96 0
-16 -17 -22 -27 -30 -35 -40 -47 -52 -97 0
-16 -17 -22 -28 -30 -35 -41 -47 -53 -98 0
-16 -17 -22 -29 -30 -35 -42 -47 -54 -99 0
-16 -17 -23 -24 -30 -36 -37 -48 -49 -100 0
-16 -17 -23 -25 -30 -36 -38 -48 -50 -101 0
-16 -17 -23 -26 -30 -36 -39 -48 -51 -102 0
-16 -17 -23 -27 -30 -36 -40 -48 -52 -103 0
-16 -17 -23 -28 -30 -36 -41 -48 -53 -104 0
-16 -17 -23 -29 -30 -36 -42 -48 -54 -105 0
-16 -17 -24 -25 -30 -37 -38 -49 -50 -106 0
-16 -17 -24 -26 -30 -37 -39 -49 -51 -107 0
-16 -17 -24 -27 -30 -37 -40 -49 -52 -108 0
-16 -17 -24 -28 -30 -37 -41 -49 -53 -109 0
-16 -17 -24 -29 -30 -37 -42 -49 -54 -110 0
-16 -17 -25 -26 -30 -38 -39 -50 -51 -111 0
-16 -17 -25 -27 -30 -38 -40 -50 -52 -112 0
-16 -17 -25 -28 -30 -38 -41 -50 -53 -113 0
-16 -17 -25 -29 -30 -38 -42 -50 -54 -114 0
-16 -17 -26 -27 -30 -39 -40 -51 -52 -115 0
-16 -17 -26 -28 -30 -39 -41 -51 -53 -116 0
-16 -17 -26 -29 -30 -39 -42 -51 -54 -117 0
-16 -17 -27 -28 -30 -40 -41 -52 -53 -118 0
-16 -17 -27 -29 -30 -40 -42 -52 -54 -119 0
-16 -17 -28 -29 -30 -41 -42 -53 -54 -120 0
-16 -18 -19 -20 -31 -32 -33 -55 -56 -66 0
-16 -18 -19 -21 -31 -32 -34 -55 -57 -67 0
-16 -18 -19 -22 -31 -32 -35 -55 -58 -68 0
-16 -18 -19 -23 -31 -32 -36 -55 -59 -69 0
-16 -18 -19 -24 -31 -32 -37 -55 -60 -70 0
-16 -18 -19 -25 -31 -32 -38 -55 -61 -71 0
-16 -18 -19 -26 -31 -32 -39 -55 -62 -72 0
-16 -18 -19 -27 -31 -32 -40 -55 -63 -73 0
-16 -18 -19 -28 -31 -32 -41 -55 -64 -74 0
-16 -18 -19 -29 -31 -32 -42 -55 -65 -75 0
-16 -18 -20 -21 -31 -33 -34 -56 -57 -76 0
-16 -18 -20 -22 -31 -33 -35 -56 -58 -77 0
-16 -18 -20 -23 -31 -33 -36 -56 -59 -78 0
-16 -18 -20 -24 -31 -33 -37 -56 -60 -79 0
-16 -18 -20 -25 -31 -33 -38 -56 -61 -80 0
-16 -18 -20 -26 -31 -33 -39 -56 -62 -81 0
-16 -18 -20 -27 -31 -33 -40 -56 -63 -82 0
-16 -18 -20 -28 -31 -33 -41 -56 -64 -83 0
-16 -18 -20 -29 -31 -33 -42 -56 -65 -84 0
-16 -18 -21 -22 -31 -34 -35 -57 -58 -85 0
-16 -18 -21 -23 -31 -34 -36 -57 -59 -86 0
-16 -18 -21 -24 -31 -34 -37 -57 -60 -87 0
-16 -18 -21 -25 -31 -34 -38 -57 -61 -88 0
-16 -18 -21 -26 -31 -34 -39 -57 -62 -89 0
-16 -18 -21 -27 -31 -34 -40 -57 -63 -90 0
-16 -18 -21 -28 -31 -34 -41 -57 -64 -91 0
-16 -18 -21 -29 -31 -34 -42 -57 -65 -92 0
-16 -18 -22 -23 -31 -35 -36 -58 -59 -93 0
-16 -18 -22 -24 -31 -35 -37 -58 -60 -94 0
-16 -18 -22 -25 -31 -35 -38 -58 -61 -95 0
-16 -18 -22 -26 -31 -35 -39 -58 -62 -96 0
-16 -18 -22 -27 -31 -35 -40 -58 -63 -97 0
-16 -18 -22 -28 -31 -35 -41 -58 -64 -98 0
-16 -18 -22 -29 -31 -35 -42 -58 -65 -99 0
-16 -18 -23 -24 -31 -36 -37 -59 -60 -100 0
-16 -18 -23 -25 -31 -36 -38 -59 -61 -101 0
-16 -18 -23 -26 -31 -36 -39 -59 -62 -102 0
-16 -18 -23 -27 -31 -36 -40 -59 -63 -103 0
-16 -18 -23 -28 -31 -36 -41 -59 -64 -104 0
-16 -18 -23 -29 -31 -36 -42 -59 -65 -105 0
-16 -18 -24 -25 -31 -37 -38 -60 -61 -106 0
-16 -18 -24 -26 -31 -37 -39 -60 -62 -107 0
-16 -18 -24 -27 -31 -37 -40 -60 -63 -108 0
-16 -18 -24 -28 -31 -37 -41 -60 -64 -109 0
-16 -18 -24 -29 -31 -37 -42 -60 -65 -110 0
-16 -18 -25 -26 -31 -38 -39 -61 -62 -111 0
-16 -18 -25 -27 -31 -38 -40 -61 -63 -112 0
-16 -18 -25 -28 -31 -38 -41 -61 -64 -113 0
-16 -18 -25 -29 -31 -38 -42 -61 -65 -114 0
-16 -18 -26 -27 -31 -39 -40 -62 -63 -115 0
-16 -18 -26 -28 -31 -39 -41 -62 -64 -116 0
-16 -18 -26 -29 -31 -39 -42 -62 -65 -117 0
-16 -18 -27 -28 -31 -40 -41 -63 -64 -118 0
-16 -18 -27 -29 -31 -40 -42 -63 -65 -119 0
-16 -18 -28 -29 -31 -41 -42 -64 -65 -120 0
-16 -19 -20 -21 -32 -33 -34 -66 -67 -76 0
-16 -19 -20 -22 -32 -33 -35 -66 -68 -77 0
-16 -19 -20 -23 -32 -33 -36 -66 -69 -78 0
-16 -19 -20 -24 -32 -33 -37 -66 -70 -79 0
-16 -19 -20 -25 -32 -33 -38 -66 -71 -80 0
-16 -19 -20 -26 -32 -33 -39 -66 -72 -81 0
-16 -19 -20 -27 -32 -33 -40 -66 -73 -82 0
-16 -19 -20 -28 -32 -33 -41 -66 -74 -83 0
-16 -19 -20 -29 -32 -33 -42 -66 -75 -84 0
-16 -19 -21 -22 -32 -34 -35 -67 -68 -85 0
-16 -19 -21 -23 -32 -34 -36 -67 -69 -86 0
-16 -19 -21 -24 -32 -34 -37 -67 -70 -87 0
-16 -19 -21 -25 -32 -34 -38 -67 -71 -88 0
-16 -19 -21 -26 -32 -34 -39 -67 -72 -89 0
-16 -19 -21 -27 -32 -34 -40 -67 -73 -90 0
-16 -19 -21 -28 -32 -34 -41 -67 -74 -91 0
-16 -19 -21 -29 -32 -34 -42 -67 -75 -92 0
-16 -19 -22 -23 -32 -35 -36 -68 -69 -93 0
-16 -19 -22 -24 -32 -35 -37 -68 -70 -94 0
-16 -19 -22 -25 -32 -35 -38 -68 -71 -95 0
-16 -19 -22 -26 -32 -35 -39 -68 -72 -96 0
-16 -19 -22 -27 -32 -35 -40 -68 -73 -97 0
-16 -19 -22 -28 -32 -35 -41 -68 -74 -98 0
-16 -19 -22 -29 -32 -35 -42 -68 -75 -99 0
-16 -19 -23 -24 -32 -36 -37 -69 -70 -100 0
-16 -19 -23 -25 -32 -36 -38 -69 -71 -101 0
-16 -19 -23 -26 -32 -36 -39 -69 -72 -102 0
-16 -19 -23 -27 -32 -36 -40 -69 -73 -103 0
-16 -19 -23 -28 -32 -36 -41 -69 -74 -104 0
-16 -19 -23 -29 -32 -36 -42 -69 -75 -105 0
-16 -19 -24 -25 -32 -37 -38 -70 -71 -106 0
-16 -19 -24 -26 -32 -37 -39 -70 -72 -107 0
-16 -19 -24 -27 -32 -37 -40 -70 -73 -108 0
-16 -19 -24 -28 -32 -37 -41 -70 -74 -109 0
-16 -19 -24 -29 -32 -37 -42 -70 -75 -110 0
-16 -19 -25 -26 -32 -38 -39 -71 -72 -111 0
-16 -19 -25 -27 -32 -38 -40 -71 -73 -112 0
-16 -19 -25 -28 -32 -38 -41 -71 -74 -113 0
-16 -19 -25 -29 -32 -38 -42 -71 -75 -114 0
-16 -19 -26 -27 -32 -39 -40 -72 -73 -115 0
-16 -19 -26 -28 -32 -39 -41 -72 -74 -116 0
-16 -19 -26 -29 -32 -39 -42 -72 -75 -117 0
-16 -19 -27 -28 -32 -40 -41 -73 -74 -118 0
-16 -19 -27 -29 -32 -40 -42 -73 -75 -119 0
-16 -19 -28 -29 -32 -41 -42 -74 -75 -120 0
-16 -20 -21 -22 -33 -34 -35 -76 -77 -85 0
-16 -20 -21 -23 -33 -34 -36 -76 -78 -86 0
-16 -20 -21 -24 -33 -34 -37 -76 -79 -87 0
-16 -20 -21 -25 -33 -34 -38 -76 -80 -88 0
-16 -20 -21 -26 -33 -34 -39 -76 -81 -89 0
-16 -20 -21 -27 -33 -34 -40 -76 -82 -90 0
-16 -20 -21 -28 -33 -34 -41 -76 -83 -91 0
-16 -20 -21 -29 -33 -34 -42 -76 -84 -92 0
-16 -20 -22 -23 -33 -35 -36 -77 -78 -93 0
-16 -20 -22 -24 -33 -35 -37 -77 -79 -94 0
-16 -20 -22 -25 -33 -35 -38 -77 -80 -95 0
-16 -20 -22 -26 -33 -35 -39 -77 -81 -96 0
-16 -20 -22 -27 -33 -35 -40 -77 -82 -97 0
-16 -20 -22 -28 -33 -35 -41 -77 -83 -98 0
-16 -20 -22 -29 -33 -35 -42 -77 -84 -99 0
-16 -20 -23 -24 -33 -36 -37 -78 -79 -100 0
-16 -20 -23 -25 -33 -36 -38 -78 -80 -101 0
-16 -20 -23 -26 -33 -36 -39 -78 -81 -102 0
-16 -20 -23 -27 -33 -36 -40 -78 -82 -103 0
-16 -20 -23 -28 -33 -36 -41 -78 -83 -104 0
-16 -20 -23 -29 -33 -36 -42 -78 -84 -105 0
-16 -20 -24 -25 -33 -37 -38 -79 -80 -106 0
-16 -20 -24 -26 -33 -37 -39 -79 -81 -107 0
-16 -20 -24 -27 -33 -37 -40 -79 -82 -108 0
-16 -20 -24 -28 -33 -37 -41 -79 -83 -109 0
-16 -20 -24 -29 -33 -37 -42 -79 -84 -110 0
-16 -20 -25 -26 -33 -38 -39 -80 -81 -111 0
-16 -20 -25 -27 -33 -38 -40 -80 -82 -112 0
-16 -20 -25 -28 -33 -38 -41 -80 -83 -113 0
-16 -20 -25 -29 -33 -38 -42 -80 -84 -114 0
-16 -20 -26 -27 -33 -39 -40 -81 -82 -115 0
-16 -20 -26 -28 -33 -39 -41 -81 -83 -116 0
-16 -20 -26 -29 -33 -39 -42 -81 -84 -117 0
-16 -20 -27 -28 -33 -40 -41 -82 -83 -118 0
-16 -20 -27 -29 -33 -40 -42 -82 -84 -119 0
-16 -20 -28 -29 -33 -41 -42 -83 -84 -120 0
-16 -21 -22 -23 -34 -35 -36 -85 -86 -93 0
-16 -21 -22 -24 -34 -35 -37 -85 -87 -94 0
-16 -21 -22 -25 -34 -35 -38 -85 -88 -95 0
-16 -21 -22 -26 -34 -35 -39 -85 -89 -96 0
-16 -21 -22 -27 -34 -35 -40 -85 -90 -97 0
-16 -21 -22 -28 -34 -35 -41 -85 -91 -98 0
-16 -21 -22 -29 -34 -35 -42 -85 -92 -99 0
-16 -21 -23 -24 -34 -36 -37 -86 -87 -100 0
-16 -21 -23 -25 -34 -36 -38 -86 -88 -101 0
-16 -21 -23 -26 -34 -36 -39 -86 -89 -102 0
-16 -21 -23 -27 -34 -36 -40 -86 -90 -103 0
-16 -21 -23 -28 -34 -36 -41 -86 -91 -104 0
-16 -21 -23 -29 -34 -36 -42 -86 -92 -105 0
-16 -21 -24 -25 -34 -37 -38 -87 -88 -106 0
-16 -21 -24 -26 -34 -37 -39 -87 -89 -107 0
-16 -21 -24 -27 -34 -37 -40 -87 -90 -108 0
-16 -21 -24 -28 -34 -37 -41 -87 -91 -109 0
-16 -21 -24 -29 -34 -37 -42 -87 -92 -110 0
-16 -21 -25 -26 -34 -38 -39 -88 -89 -111 0
-16 -21 -25 -27 -34 -38 -40 -88 -90 -112 0
-16 -21 -25 -28 -34 -38 -41 -88 -91 -113 0
-16 -21 -25 -29 -34 -38 -42 -88 -92 -114 0
-16 -21 -26 -27 -34 -39 -40 -89 -90 -115 0
-16 -21 -26 -28 -34 -39 -41 -89 -91 -116 0
-16 -21 -26 -29 -34 -39 -42 -89 -92 -117 0
-16 -21 -27 -28 -34 -40 -41 -90 -91 -118 0
-16 -21 -27 -29 -34 -40 -42 -90 -92 -119 0
-16 -21 -28 -29 -34 -41 -42 -91 -92 -120 0
-16 -22 -23 -24 -35 -36 -37 -93 -94 -100 0
-16 -22 -23 -25 -35 -36 -38 -93 -95 -101 0
-16 -22 -23 -26 -35 -36 -39 -93 -96 -102 0
-16 -22 -23 -27 -35 -36 -40 -93 -97 -103 0
-16 -22 -23 -28 -35 -36 -41 -93 -98 -104 0
-16 -22 -23 -29 -35 -36 -42 -93 -99 -105 0
-16 -22 -24 -25 -35 -37 -38 -94 -95 -106 0
-16 -22 -24 -26 -35 -37 -39 -94 -96 -107 0
-16 -22 -24 -27 -35 -37 -40 -94 -97 -108 0
-16 -22 -24 -28 -35 -37 -41 -94 -98 -109 0
-16 -22 -24 -29 -35 -37 -42 -94 -99 -110 0
-16 -22 -25 -26 -35 -38 -39 -95 -96 -111 0
-16 -22 -25 -27 -35 -38 -40 -95 -97 -112 0
-16 -22 -25 -28 -35 -38 -41 -95 -98 -113 0
-16 -22 -25 -29 -35 -38 -42 -95 -99 -114 0
-16 -22 -26 -27 -35 -39 -40 -96 -97 -115 0
-16 -22 -26 -28 -35 -39 -41 -96 -98 -116 0
-16 -22 -26 -29 -35 -39 -42 -96 -99 -117 0
-16 -22 -27 -28 -35 -40 -41 -97 -98 -118 0
-16 -22 -27 -29 -35 -40 -42 -97 -99 -119 0
-16 -22 -28 -29 -35 -41 -42 -98 -99 -120 0
-16 -23 -24 -25 -36 -37 -38 -100 -101 -106 0
-16 -23 -24 -26 -36 -37 -39 -100 -102 -107 0
-16 -23 -24 -27 -36 -37 -40 -100 -103 -108 0
-16 -23 -24 -28 -36 -37 -41 -100 -104 -109 0
-16 -23 -24 -29 -36 -37 -42 -100 -105 -110 0
-16 -23 -25 -26 -36 -38 -39 -101 -102 -111 0
-16 -23 -25 -27 -36 -38 -40 -101 -103 -112 0
-16 -23 -25 -28 -36 -38 -41 -101 -104 -113 0
-16 -23 -25 -29 -36 -38 -42 -101 -105 -114 0
-16 -23 -26 -27 -36 -39 -40 -102 -103 -115 0
-16 -23 -26 -28 -36 -39 -41 -102 -104 -116 0
-16 -23 -26 -29 -36 -39 -42 -102 -105 -117 0
-16 -23 -27 -28 -36 -40 -41 -103 -104 -118 0
-16 -23 -27 -29 -36 -40 -42 -103 -105 -119 0
-16 -23 -28 -29 -36 -41 -42 -104 -105 -120 0
-16 -24 -25 -26 -37 -38 -39 -106 -107 -111 0
-16 -24 -25 -27 -37 -38 -40 -106 -108 -112 0
-16 -24 -25 -28 -37 -38 -41 -106 -109 -113 0
-16 -24 -25 -29 -37 -38 -42 -106 -110 -114 0
-16 -24 -26 -27 -37 -39 -40 -107 -108 -115 0
-16 -24 -26 -28 -37 -39 -41 -107 -109 -116 0
-16 -24 -26 -29 -37 -39 -42 -107 -110 -117 0
-16 -24 -27 -28 -37 -40 -41 -108 -109 -118 0
-16 -24 -27 -29 -37 -40 -42 -108 -110 -119 0
-16 -24 -28 -29 -37 -41 -42 -109 -110 -120 0
-16 -25 -26 -27 -38 -39 -40 -111 -112 -115 0
-16 -25 -26 -28 -38 -39 -41 -111 -113 -116 0
-16 -25 -26 -29 -38 -39 -42 -111 -114 -117 0
-16 -25 -27 -28 -38 -40 -41 -112 -113 -118 0
-16 -25 -27 -29 -38 -40 -42 -112 -114 -119 0
-16 -25 -28 -29 -38 -41 -42 -113 -114 -120 0
-16 -26 -27 -28 -39 -40 -41 -115 -116 -118 0
-16 -26 -27 -29 -39 -40 -42 -115 -117 -119 0
-16 -26 -28 -29 -39 -41 -42 -116 -117 -120 0
-16 -27 -28 -29 -40 -41 -42 -118 -119 -120 0
-17 -18 -19 -20 -43 -44 -45 -55 -56 -66 0
-17 -18 -19 -21 -43 -44 -46 -55 -57 -67 0
-17 -18 -19 -22 -43 -44 -47 -55 -58 -68 0
-17 -18 -19 -23 -43 -44 -48 -55 -59 -69 0
-17 -18 -19 -24 -43 -44 -49 -55 -60 -70 0
-17 -18 -19 -25 -43 -44 -50 -55 -61 -71 0
-17 -18 -19 -26 -43 -44 -51 -55 -62 -72 0
-17 -18 -19 -27 -43 -44 -52 -55 -63 -73 0
-17 -18 -19 -28 -43 -44 -53 -55 -64 -74 0
-17 -18 -19 -29 -43 -44 -54 -55 -65 -75 0
-17 -18 -20 -21 -43 -45 -46 -56 -57 -76 0
-17 -18 -20 -22 -43 -45 -47 -56 -58 -77 0
-17 -18 -20 -23 -43 -45 -48 -56 -59 -78 0
-17 -18 -20 -24 -43 -45 -49 -56 -60 -79 0
-17 -18 -20 -25 -43 -45 -50 -56 -61 -80 0
-17 -18 -20 -26 -43 -45 -51 -56 -62 -81 0
-17 -18 -20 -27 -43 -45 -52 -56 -63 -82 0
-17 -18 -20 -28 -43 -45 -53 -56 -64 -83 0
-17 -18 -20 -29 -43 -45 -54 -56 -65 -84 0
-17 -18 -21 -22 -43 -46 -47 -57 -58 -85 0
-17 -18 -21 -23 -43 -46 -48 -57 -59 -86 0
-17 -18 -21 -24 -43 -46 -49 -57 -60 -87 0
-17 -18 -21 -25 -43 -46 -50 -57 -61 -88 0
-17 -18 -21 -26 -43 -46 -51 -57 -62 -89 0
-17 -18 -21 -27 -43 -46 -52 -57 -63 -90 0
-17 -18 -21 -28 -43 -46 -53 -57 -64 -91 0
-17 -18 -21 -29 -43 -46 -54 -57 -65 -92 0
-17 -18 -22 -23 -43 -47 -48 -58 -59 -93 0
-17 -18 -22 -24 -43 -47 -49 -58 -60 -94 0
-17 -18 -22 -25 -43 -47 -50 -58 -61 -95 0
-17 -18 -22 -26 -43 -47 -51 -58 -62 -96 0
-17 -18 -22 -27 -43 -47 -52 -58 -63 -97 0
-17 -18 -22 -28 -43 -47 -53 -58 -64 -98 0
-17 -18 -22 -29 -43 -47 -54 -58 -65 -99 0
-17 -18 -23 -24 -43 -48 -49 -59 -60 -100 0
-17 -18 -23 -25 -43 -48 -50 -59 -61 -101 0
-17 -18 -23 -26 -43 -48 -51 -59 -62 -102 0
-17 -18 -23 -27 -43 -48 -52 -59 -63 -103 0
-17 -18 -23 -28 -43 -48 -53 -59 -64 -104 0
-17 -18 -23 -29 -43 -48 -54 -59 -65 -105 0
-17 -18 -24 -25 -43 -49 -50 -60 -61 -106 0
-17 -18 -24 -26 -43 -49 -51 -60 -62 -107 0
-17 -18 -24 -27 -43 -49 -52 -60 -63 -108 0
-17 -18 -24 -28 -43 -49 -53 -60 -64 -109 0
-17 -18 -24 -29 -43 -49 -54 -60 -65 -110 0
-17 -18 -25 -26 -43 -50 -51 -61 -62 -111 0
-17 -18 -25 -27 -43 -50 -52 -61 -63 -112 0
-17 -18 -25 -28 -43 -50 -53 -61 -64 -113 0
-17 -18 -25 -29 -43 -50 -54 -61 -65 -114 0
-17 -18 -26 -27 -43 -51 -52 -62 -63 -115 0
-17 -18 -26 -28 -43 -51 -53 -62 -64 -116 0
-17 -18 -26 -29 -43 -51 -54 -62 -65 -117 0
-17 -18 -27 -28 -43 -52 -53 -63 -64 -118 0
-17 -18 -27 -29 -43 -52 -54 -63 -65 -119 0
-17 -18 -28 -29 -43 -53 -54 -64 -65 -120 0
-17 -19 -20 -21 -44 -45 -46 -66 -67 -76 0
-17 -19 -20 -22 -44 -45 -47 -66 -68 -77 0
-17 -19 -20 -23 -44 -45 -48 -66 -69 -78 0
-17 -19 -20 -24 -44 -45 -49 -66 -70 -79 0
-17 -19 -20 -25 -44 -45 -50 -66 -71 -80 0
-17 -19 -20 -26 -44 -45 -51 -66 -72 -81 0
-17 -19 -20 -27 -44 -45 -52 -66 -73 -82 0
-17 -19 -20 -28 -44 -45 -53 -66 -74 -83 0
-17 -19 -20 -29 -44 -45 -54 -66 -75 -84 0
-17 -19 -21 -22 -44 -46 -47 -67 -68 -85 0
-17 -19 -21 -23 -44 -46 -48 -67 -69 -86 0
-17 -19 -21 -24 -44 -46 -49 -67 -70 -87 0
-17 -19 -21 -25 -44 -46 -50 -67 -71 -88 0
-17 -19 -21 -26 -44 -46 -51 -67 -72 -89 0
-17 -19 -21 -27 -44 -46 -52 -67 -73 -90 0
-17 -19 -21 -28 -44 -46 -53 -67 -74 -91 0
-17 -19 -21 -29 -44 -46 -54 -67 -75 -92 0
-17 -19 -22 -23 -44 -47 -48 -68 -69 -93 0
-17 -19 -22 -24 -44 -47 -49 -68 -70 -94 0
-17 -19 -22 -25 -44 -47 -50 -68 -71 -95 0
-17 -19 -22 -26 -44 -47 -51 -68 -72 -96 0
-17 -19 -22 -27 -44 -47 -52 -68 -73 -97 0
-17 -19 -22 -28 -44 -47 -53 -68 -74 -98 0
-17 -19 -22 -29 -44 -47 -54 -68 -75 -99 0
-17 -19 -23 -24 -44 -48 -49 -69 -70 -100 0
-17 -19 -23 -25 -44 -48 -50 -69 -71 -101 0
-17 -19 -23 -26 -44 -48 -51 -69 -72 -102 0
-17 -19 -23 -27 -44 -48 -52 -69 -73 -103 0
-17 -19 -23 -28 -44 -48 -53 -69 -74 -104 0
-17 -19 -23 -29 -44 -48 -54 -69 -75 -105 0
-17 -19 -24 -25 -44 -49 -50 -70 -71 -106 0
-17 -19 -24 -26 -44 -49 -51 -70 -72 -107 0
-17 -19 -24 -27 -44 -49 -52 -70 -73 -108 0
-17 -19 -24 -28 -44 -49 -53 -70 -74 -109 0
-17 -19 -24 -29 -44 -49 -54 -70 -75 -110 0
-17 -19 -25 -26 -44 -50 -51 -71 -72 -111 0
-17 -19 -25 -27 -44 -50 -52 -71 -73 -112 0
-17 -19 -25 -28 -44 -50 -53 -71 -74 -113 0
-17 -19 -25 -29 -44 -50 -54 -71 -75 -114 0
-17 -19 -26 -27 -44 -51 -52 -72 -73 -115 0
-17 -19 -26 -28 -44 -51 -53 -72 -74 -116 0
-17 -19 -26 -29 -44 -51 -54 -72 -75 -117 0
-17 -19 -27 -28 -44 -52 -53 -73 -74 -118 0
-17 -19 -27 -29 -44 -52 -54 -73 -75 -119 0
-17 -19 -28 -29 -44 -53 -54 -74 -75 -120 0
-17 -20 -21 -22 -45 -46 -47 -76 -77 -85 0
-17 -20 -21 -23 -45 -46 -48 -76 -78 -86 0
-17 -20 -21 -24 -45 -46 -49 -76 -79 -87 0
-17 -20 -21 -25 -45 -46 -50 -76 -80 -88 0
-17 -20 -21 -26 -45 -46 -51 -76 -81 -89 0
-17 -20 -21 -27 -45 -46 -52 -76 -82 -90 0
-17 -20 -21 -28 -45 -46 -53 -76 -83 -91 0
-17 -20 -21 -29 -45 -46 -54 -76 -84 -92 0
-17 -20 -22 -23 -45 -47 -48 -77 -78 -93 0
-17 -20 -22 -24 -45 -47 -49 -77 -79 -94 0
-17 -20 -22 -25 -45 -47 -50 -77 -80 -95 0
-17 -20 -22 -26 -45 -47 -51 -77 -81 -96 0
-17 -20 -22 -27 -45 -47 -52 -77 -82 -97 0
-17 -20 -22 -28 -45 -47 -53 -77 -83 -98 0
-17 -20 -22 -29 -45 -47 -54 -77 -84 -99 0
-17 -20 -23 -24 -45 -48 -49 -78 -79 -100 0
-17 -20 -23 -25 -45 -48 -50 -78 -80 -101 0
-17 -20 -23 -26 -45 -48 -51 -78 -81 -102 0
-17 -20 -23 -27 -45 -48 -52 -78 -82 -103 0
-17 -20 -23 -28 -45 -48 -53 -78 -83 -104 0
-17 -20 -23 -29 -45 -48 -54 -78 -84 -105 0
-17 -20 -24 -25 -45 -49 -50 -79 -80 -106 0
-17 -20 -24 -26 -45 -49 -51 -79 -81 -107 0
-17 -20 -24 -27 -45 -49 -52 -79 -82 -108 0
-17 -20 -24 -28 -45 -49 -53 -79 -83 -109 0
-17 -20 -24 -29 -45 -49 -54 -79 -84 -110 0
-17 -20 -25 -26 -45 -50 -51 -80 -81 -111 0
-17 -20 -25 -27 -45 -50 -52 -80 -82 -112 0
-17 -20 -25 -28 -45 -50 -53 -80 -83 -113 0
-17 -20 -25 -29 -45 -50 -54 -80 -84 -114 0
-17 -20 -26 -27 -45 -51 -52 -81 -82 -115 0
-17 -20 -26 -28 -45 -51 -53 -81 -83 -116 0
-17 -20 -26 -29 -45 -51 -54 -81 -84 -117 0
-17 -20 -27 -28 -45 -52 -53 -82 -83 -118 0
-17 -20 -27 -29 -45 -52 -54 -82 -84 -119 0
-17 -20 -28 -29 -45 -53 -54 -83 -84 -120 0
-17 -21 -22 -23 -46 -47 -48 -85 -86 -93 0
-17 -21 -22 -24 -46 -47 -49 -85 -87 -94 0
-17 -21 -22 -25 -46 -47 -50 -85 -88 -95 0
-17 -21 -22 -26 -46 -47 -51 -85 -89 -96 0
-17 -21 -22 -27 -46 -47 -52 -85 -90 -97 0
-17 -21 -22 -28 -46 -47 -53 -85 -91 -98 0
-17 -21 -22 -29 -46 -47 -54 -85 -92 -99 0
-17 -21 -23 -24 -46 -48 -49 -86 -87 -100 0
-17 -21 -23 -25 -46 -48 -50 -86 -88 -101 0
-17 -21 -23 -26 -46 -48 -51 -86 -89 -102 0
-17 -21 -23 -27 -46 -48 -52 -86 -90 -103 0
-17 -21 -23 -28 -46 -48 -53 -86 -91 -104 0
-17 -21 -23 -29 -46 -48 -54 -86 -92 -105 0
-17 -21 -24 -25 -46 -49 -50 -87 -88 -106 0
-17 -21 -24 -26 -46 -49 -51 -87 -89 -107 0
-17 -21 -24 -27 -46 -49 -52 -87 -90 -108 0
-17 -21 -24 -28 -46 -49 -53 -87 -91 -109 0
-17 -21 -24 -29 -46 -49 -54 -87 -92 -110 0
-17 -21 -25 -26 -46 -50 -51 -88 -89 -111 0
-17 -21 -25 -27 -46 -50 -52 -88 -90 -112 0
-17 -21 -25 -28 -46 -50 -53 -88 -91 -113 0
-17 -21 -25 -29 -46 -50 -54 -88 -92 -114 0
-17 -21 -26 -27 -46 -51 -52 -89 -90 -115 0
-17 -21 -26 -28 -46 -51 -53 -89 -91 -116 0
-17 -21 -26 -29 -46 -51 -54 -89 -92 -117 0
-17 -21 -27 -28 -46 -52 -53 -90 -91 -118 0
-17 -21 -27 -29 -46 -52 -54 -90 -92 -119 0
-17 -21 -28 -29 -46 -53 -54 -91 -92 -120 0
-17 -22 -23 -24 -47 -48 -49 -93 -94 -100 0
-17 -22 -23 -25 -47 -48 -50 -93 -95 -101 0
-17 -22 -23 -26 -47 -48 -51 -93 -96 -102 0
-17 -22 -23 -27 -47 -48 -52 -93 -97 -103 0
-17 -22 -23 -28 -47 -48 -53 -93 -98 -104 0
-17 -22 -23 -29 -47 -48 -54 -93 -99 -105 0
-17 -22 -24 -25 -47 -49 -50 -94 -95 -106 0
-17 -22 -24 -26 -47 -49 -51 -94 -96 -107 0
-17 -22 -24 -27 -47 -49 -52 -94 -97 -108 0
-17 -22 -24 -28 -47 -49 -53 -94 -98 -109 0
-17 -22 -24 -29 -47 -49 -54 -94 -99 -110 0
-17 -22 -25 -26 -47 -50 -51 -95 -96 -111 0
-17 -22 -25 -27 -47 -50 -52 -95 -97 -112 0
-17 -22 -25 -28 -47 -50 -53 -95 -98 -113 0
-17 -22 -25 -29 -47 -50 -54 -95 -99 -114 0
-17 -22 -26 -27 -47 -51 -52 -96 -97 -115 0
-17 -22 -26 -28 -47 -51 -53 -96 -98 -116 0
-17 -22 -26 -29 -47 -51 -54 -96 -99 -117 0
-17 -22 -27 -28 -47 -52 -53 -97 -98 -118 0
-17 -22 -27 -29 -47 -52 -54 -97 -99 -119 0
-17 -22 -28 -29 -47 -53 -54 -98 -99 -120 0
-17 -23 -24 -25 -48 -49 -50 -100 -101 -106 0
-17 -23 -24 -26 -48 -49 -51 -100 -102 -107 0
-17 -23 -24 -27 -48 -49 -52 -100 -103 -108 0
-17 -23 -24 -28 -48 -49 -53 -100 -104 -109 0
-17 -23 -24 -29 -48 -49 -54 -100 -105 -110 0
-17 -23 -25 -26 -48 -50 -51 -101 -102 -111 0
-17 -23 -25 -27 -48 -50 -52 -101 -103 -112 0
-17 -23 -25 -28 -48 -50 -53 -101 -104 -113 0
-17 -23 -25 -29 -48 -50 -54 -101 -105 -114 0
-17 -23 -26 -27 -48 -51 -52 -102 -103 -115 0
-17 -23 -26 -28 -48 -51 -53 -102 -104 -116 0
-17 -23 -26 -29 -48 -51 -54 -102 -105 -117 0
-17 -23 -27 -28 -48 -52 -53 -103 -104 -118 0
-17 -23 -27 -29 -48 -52 -54 -103 -105 -119 0
-17 -23 -28 -29 -48 -53 -54 -104 -105 -120 0
-17 -24 -25 -26 -49 -50 -51 -106 -107 -111 0
-17 -24 -25 -27 -49 -50 -52 -106 -108 -112 0
-17 -24 -25 -28 -49 -50 -53 -106 -109 -113 0
-17 -24 -25 -29 -49 -50 -54 -106 -110 -114 0
-17 -24 -26 -27 -49 -51 -52 -107 -108 -115 0
-17 -24 -26 -28 -49 -51 -53 -107 -109 -116 0
-17 -24 -26 -29 -49 -51 -54 -107 -110 -117 0
-17 -24 -27 -28 -49 -52 -53 -108 -109 -118 0
-17 -24 -27 -29 -49 -52 -54 -108 -110 -119 0
-17 -24 -28 -29 -49 -53 -54 -109 -110 -120 0
-17 -25 -26 -27 -50 -51 -52 -111 -112 -115 0
-17 -25 -26 -28 -50 -51 -53 -111 -113 -116 0
-17 -25 -26 -29 -50 -51 -54 -111 -114 -117 0
-17 -25 -27 -28 -50 -52 -53 -112 -113 -118 0
-17 -25 -27 -29 -50 -52 -54 -112 -114 -119 0
-17 -25 -28 -29 -50 -53 -54 -113 -114 -120 0
-17 -26 -27 -28 -51 -52 -53 -115 -116 -118 0
-17 -26 -27 -29 -51 -52 -54 -115 -117 -119 0
-17 -26 -28 -29 -51 -53 -54 -116 -117 -120 0
-17 -27 -28 -29 -52 -53 -54 -118 -119 -120 0
-18 -19 -20 -21 -55 -56 -57 -66 -67 -76 0
-18 -19 -20 -22 -55 -56 -58 -66 -68 -77 0
-18 -19 -20 -23 -55 -56 -59 -66 -69 -78 0
-18 -19 -20 -24 -55 -56 -60 -66 -70 -79 0
-18 -19 -20 -25 -55 -56 -61 -66 -71 -80 0
-18 -19 -20 -26 -55 -56 -62 -66 -72 -81 0
-18 -19 -20 -27 -55 -56 -63 -66 -73 -82 0
-18 -19 -20 -28 -55 -56 -64 -66 -74 -83 0
-18 -19 -20 -29 -55 -56 -65 -66 -75 -84 0
-18 -19 -21 -22 -55 -57 -58 -67 -68 -85 0
-18 -19 -21 -23 -55 -57 -59 -67 -69 -86 0
-18 -19 -21 -24 -55 -57 -60 -67 -70 -87 0
-18 -19 -21 -25 -55 -57 -61 -67 -71 -88 0
-18 -19 -21 -26 -55 -57 -62 -67 -72 -89 0
-18 -19 -21 -27 -55 -57 -63 -67 -73 -90 0
-18 -19 -21 -28 -55 -57 -64 -67 -74 -91 0
-18 -19 -21 -29 -55 -57 -65 -67 -75 -92 0
-18 -19 -22 -23 -55 -58 -59 -68 -69 -93 0
-18 -19 -22 -24 -55 -58 -60 -68 -70 -94 0
-18 -19 -22 -25 -55 -58 -61 -68 -71 -95 0
-18 -19 -22 -26 -55 -58 -62 -68 -72 -96 0
-18 -19 -22 -27 -55 -58 -63 -68 -73 -97 0
-18 -19 -22 -28 -55 -58 -64 -68 -74 -98 0
-18 -19 -22 -29 -55 -58 -65 -68 -75 -99 0
-18 -19 -23 -24 -55 -59 -60 -69 -70 -100 0
-18 -19 -23 -25 -55 -59 -61 -69 -71 -101 0
-18 -19 -23 -26 -55 -59 -62 -69 -72 -102 0
-18 -19 -23 -27 -55 -59 -63 -69 -73 -103 0
-18 -19 -23 -28 -55 -59 -64 -69 -74 -104 0
-18 -19 -23 -29 -55 -59 -65 -69 -75 -105 0
-18 -19 -24 -25 -55 -60 -61 -70 -71 -106 0
-18 -19 -24 -26 -55 -60 -62 -70 -72 -107 0
-18 -19 -24 -27 -55 -60 -63 -70 -73 -108 0
-18 -19 -24 -28 -55 -60 -64 -70 -74 -109 0
-18 -19 -24 -29 -55 -60 -65 -70 -75 -110 0
-18 -19 -25 -26 -55 -61 -62 -71 -72 -111 0
-18 -19 -25 -27 -55 -61 -63 -71 -73 -112 0
-18 -19 -25 -28 -55 -61 -64 -71 -74 -113 0
-18 -19 -25 -29 -55 -61 -65 -71 -75 -114 0
-18 -19 -26 -27 -55 -62 -63 -72 -73 -115 0
-18 -19 -26 -28 -55 -62 -64 -72 -74 -116 0
-18 -19 -26 -29 -55 -62 -65 -72 -75 -117 0
-18 -19 -27 -28 -55 -63 -64 -73 -74 -118 0
-18 -19 -27 -29 -55 -63 -65 -73 -75 -119 0
-18 -19 -28 -29 -55 -64 -65 -74 -75 -120 0
-18 -20 -21 -22 -56 -57 -58 -76 -77 -85 0
-18 -20 -21 -23 -56 -57 -59 -76 -78 -86 0
-18 -20 -21 -24 -56 -57 -60 -76 -79 -87 0
-18 -20 -21 -25 -56 -57 -61 -76 -80 -88 0
-18 -20 -21 -26 -56 -57 -62 -76 -81 -89 0
-18 -20 -21 -27 -56 -57 -63 -76 -82 -90 0
-18 -20 -21 -28 -56 -57 -64 -76 -83 -91 0
-18 -20 -21 -29 -56 -57 -65 -76 -84 -92 0
-18 -20 -22 -23 -56 -58 -59 -77 -78 -93 0
-18 -20 -22 -24 -56 -58 -60 -77 -79 -94 0
-18 -20 -22 -25 -56 -58 -61 -77 -80 -95 0
-18 -20 -22 -26 -56 -58 -62 -77 -81 -96 0
-18 -20 -22 -27 -56 -58 -63 -77 -82 -97 0
-18 -20 -22 -28 -56 -58 -64 -77 -83 -98 0
-18 -20 -22 -29 -56 -58 -65 -77 -84 -99 0
-18 -20 -23 -24 -56 -59 -60 -78 -79 -100 0
-18 -20 -23 -25 -56 -59 -61 -78 -80 -101 0
-18 -20 -23 -26 -56 -59 -62 -78 -81 -102 0
-18 -20 -23 -27 -56 -59 -63 -78 -82 -103 0
-18 -20 -23 -28 -56 -59 -64 -78 -83 -104 0
-18 -20 -23 -29 -56 -59 -65 -78 -84 -105 0
-18 -20 -24 -25 -56 -60 -61 -79 -80 -106 0
-18 -20 -24 -26 -56 -60 -62 -79 -81 -107 0
-18 -20 -24 -27 -56 -60 -63 -79 -82 -108 0
-18 -20 -24 -28 -56 -60 -64 -79 -83 -109 0
-18 -20 -24 -29 -56 -60 -65 -79 -84 -110 0
-18 -20 -25 -26 -56 -61 -62 -80 -81 -111 0
-18 -20 -25 -27 -56 -61 -63 -80 -82 -112 0
-18 -20 -25 -28 -56 -61 -64 -80 -83 -113 0
-18 -20 -25 -29 -56 -61 -65 -80 -84 -114 0
-18 -20 -26 -27 -56 -62 -63 -81 -82 -115 0
-18 -20 -26 -28 -56 -62 -64 -81 -83 -116 0
-18 -20 -26 -29 -56 -62 -65 -81 -84 -117 0
-18 -20 -27 -28 -56 -63 -64 -82 -83 -118 0
-18 -20 -27 -29 -56 -63 -65 -82 -84 -119 0
-18 -20 -28 -29 -56 -64 -65 -83 -84 -120 0
-18 -21 -22 -23 -57 -58 -59 -85 -86 -93 0
-18 -21 -22 -24 -57 -58 -60 -85 -87 -94 0
-18 -21 -22 -25 -57 -58 -61 -85 -88 -95 0
-18 -21 -22 -26 -57 -58 -62 -85 -89 -96 0
-18 -21 -22 -27 -57 -58 -63 -85 -90 -97 0
-18 -21 -22 -28 -57 -58 -64 -85 -91 -98 0
-18 -21 -22 -29 -57 -58 -65 -85 -92 -99 0
-18 -21 -23 -24 -57 -59 -60 -86 -87 -100 0
-18 -21 -23 -25 -57 -59 -61 -86 -88 -101 0
-18 -21 -23 -26 -57 -59 -62 -86 -89 -102 0
-18 -21 -23 -27 -57 -59 -63 -86 -90 -103 0
-18 -21 -23 -28 -57 -59 -64 -86 -91 -104 0
-18 -21 -23 -29 -57 -59 -65 -86 -92 -105 0
-18 -21 -24 -25 -57 -60 -61 -87 -88 -106 0
-18 -21 -24 -26 -57 -60 -62 -87 -89 -107 0
-18 -21 -24 -27 -57 -60 -63 -87 -90 -108 0
-18 -21 -24 -28 -57 -60 -64 -87 -91 -109 0
-18 -21 -24 -29 -57 -60 -65 -87 -92 -110 0
-18 -21 -25 -26 -57 -61 -62 -88 -89 -111 0
-18 -21 -25 -27 -57 -61 -63 -88 -90 -112 0
-18 -21 -25 -28 -57 -61 -64 -88 -91 -113 0
-18 -21 -25 -29 -57 -61 -65 -88 -92 -114 0
-18 -21 -26 -27 -57 -62 -63 -89 -90 -115 0
-18 -21 -26 -28 -57 -62 -64 -89 -91 -116 0
-18 -21 -26 -29 -57 -62 -65 -89 -92 -117 0
-18 -21 -27 -28 -57 -63 -64 -90 -91 -118 0
-18 -21 -27 -29 -57 -63 -65 -90 -92 -119 0
-18 -21 -28 -29 -57 -64 -65 -91 -92 -120 0
-18 -22 -23 -24 -58 -59 -60 -93 -94 -100 0
-18 -22 -23 -25 -58 -59 -61 -93 -95 -101 0
-18 -22 -23 -26 -58 -59 -62 -93 -96 -102 0
-18 -22 -23 -27 -58 -59 -63 -93 -97 -103 0
-18 -22 -23 -28 -58 -59 -64 -93 -98 -104 0
-18 -22 -23 -29 -58 -59 -65 -93 -99 -105 0
-18 -22 -24 -25 -58 -60 -61 -94 -95 -106 0
-18 -22 -24 -26 -58 -60 -62 -94 -96 -107 0
-18 -22 -24 -27 -58 -60 -63 -94 -97 -108 0
-18 -22 -24 -28 -58 -60 -64 -94 -98 -109 0
-18 -22 -24 -29 -58 -60 -65 -94 -99 -110 0
-18 -22 -25 -26 -58 -61 -62 -95 -96 -111 0
-18 -22 -25 -27 -58 -61 -63 -95 -97 -112 0
-18 -22 -25 -28 -58 -61 -64 -95 -98 -113 0
-18 -22 -25 -29 -58 -61 -65 -95 -99 -114 0
-18 -22 -26 -27 -58 -62 -63 -96 -97 -115 0
-18 -22 -26 -28 -58 -62 -64 -96 -98 -116 0
-18 -22 -26 -29 -58 -62 -65 -96 -99 -117 0
-18 -22 -27 -28 -58 -63 -64 -97 -98 -118 0
-18 -22 -27 -29 -58 -63 -65 -97 -99 -119 0
-18 -22 -28 -29 -58 -64 -65 -98 -99 -120 0
-18 -23 -24 -25 -59 -60 -61 -100 -101 -106 0
-18 -23 -24 -26 -59 -60 -62 -100 -102 -107 0
-18 -23 -24 -27 -59 -60 -63 -100 -103 -108 0
-18 -23 -24 -28 -59 -60 -64 -100 -104 -109 0
-18 -23 -24 -29 -59 -60 -65 -100 -105 -110 0
-18 -23 -25 -26 -59 -61 -62 -101 -102 -111 0
-18 -23 -25 -27 -59 -61 -63 -101 -103 -112 0
-18 -23 -25 -28 -59 -61 -64 -101 -104 -113 0
-18 -23 -25 -29 -59 -61 -65 -101 -105 -114 0
-18 -23 -26 -27 -59 -62 -63 -102 -103 -115 0
-18 -23 -26 -28 -59 -62 -64 -102 -104 -116 0
-18 -23 -26 -29 -59 -62 -65 -102 -105 -117 0
-18 -23 -27 -28 -59 -63 -64 -103 -104 -118 0
-18 -23 -27 -29 -59 -63 -65 -103 -105 -119 0
-18 -23 -28 -29 -59 -64 -65 -104 -105 -120 0
-18 -24 -25 -26 -60 -61 -62 -106 -107 -111 0
-18 -24 -25 -27 -60 -61 -63 -106 -108 -112 0
-18 -24 -25 -28 -60 -61 -64 -106 -109 -113 0
-18 -24 -25 -29 -60 -61 -65 -106 -110 -114 0
-18 -24 -26 -27 -60 -62 -63 -107 -108 -115 0
-18 -24 -26 -28 -60 -62 -64 -107 -109 -116 0
-18 -24 -26 -29 -60 -62 -65 -107 -110 -117 0
-18 -24 -27 -28 -60 -63 -64 -108 -109 -118 0
-18 -24 -27 -29 -60 -63 -65 -108 -110 -119 0
-18 -24 -28 -29 -60 -64 -65 -109 -110 -120 0
-18 -25 -26 -27 -61 -62 -63 -111 -112 -115 0
-18 -25 -26 -28 -61 -62 -64 -111 -113 -116 0
-18 -25 -26 -29 -61 -62 -65 -111 -114 -117 0
-18 -25 -27 -28 -61 -63 -64 -112 -113 -118 0
-18 -25 -27 -29 -61 -63 -65 -112 -114 -119 0
-18 -25 -28 -29 -61 -64 -65 -113 -114 -120 0
-18 -26 -27 -28 -62 -63 -64 -115 -116 -118 0
-18 -26 -27 -29 -62 -63 -65 -115 -117 -119 0
-18 -26 -28 -29 -62 -64 -65 -116 -117 -120 0
-18 -27 -28 -29 -63 -64 -65 -118 -119 -120 0
-19 -20 -21 -22 -66 -67 -68 -76 -77 -85 0
-19 -20 -21 -23 -66 -67 -69 -76 -78 -86 0
-19 -20 -21 -24 -66 -67 -70 -76 -79 -87 0
-19 -20 -21 -25 -66 -67 -71 -76 -80 -88 0
-19 -20 -21 -26 -66 -67 -72 -76 -81 -89 0
-19 -20 -21 -27 -66 -67 -73 -76 -82 -90 0
-19 -20 -21 -28 -66 -67 -74 -76 -83 -91 0
-19 -20 -21 -29 -66 -67 -75 -76 -84 -92 0
-19 -20 -22 -23 -66 -68 -69 -77 -78 -93 0
-19 -20 -22 -24 -66 -68 -70 -77 -79 -94 0
-19 -20 -22 -25 -66 -68 -71 -77 -80 -95 0
-19 -20 -22 -26 -66 -68 -72 -77 -81 -96 0
-19 -20 -22 -27 -66 -68 -73 -77 -82 -97 0
-19 -20 -22 -28 -66 -68 -74 -77 -83 -98 0
-19 -20 -22 -29 -66 -68 -75 -77 -84 -99 0
-19 -20 -23 -24 -66 -69 -70 -78 -79 -100 0
-19 -20 -23 -25 -66 -69 -71 -78 -80 -101 0
-19 -20 -23 -26 -66 -69 -72 -78 -81 -102 0
-19 -20 -23 -27 -66 -69 -73 -78 -82 -103 0
-19 -20 -23 -28 -66 -69 -74 -78 -83 -104 0
-19 -20 -23 -29 -66 -69 -75 -78 -84 -105 0
-19 -20 -24 -25 -66 -70 -71 -79 -80 -106 0
-19 -20 -24 -26 -66 -70 -72 -79 -81 -107 0
-19 -20 -24 -27 -66 -70 -73 -79 -82 -108 0
-19 -20 -24 -28 -66 -70 -74 -79 -83 -109 0
-19 -20 -24 -29 -66 -70 -75 -79 -84 -110 0
-19 -20 -25 -26 -66 -71 -72 -80 -81 -111 0
-19 -20 -25 -27 -66 -71 -73 -80 -82 -112 0
-19 -20 -25 -28 -66 -71 -74 -80 -83 -113 0
-19 -20 -25 -29 -66 -71 -75 -80 -84 -114 0
-19 -20 -26 -27 -66 -72 -73 -81 -82 -115 0
-19 -20 -26 -28 -66 -72 -74 -81 -83 -116 0
-19 -20 -26 -29 -66 -72 -75 -81 -84 -117 0
-19 -20 -27 -28 -66 -73 -74 -82 -83 -118 0
-19 -20 -27 -29 -66 -73 -75 -82 -84 -119 0
-19 -20 -28 -29 -66 -74 -75 -83 -84 -120 0
-19 -21 -22 -23 -67 -68 -69 -85 -86 -93 0
-19 -21 -22 -24 -67 -68 -70 -85 -87 -94 0
-19 -21 -22 -25 -67 -68 -71 -85 -88 -95 0
-19 -21 -22 -26 -67 -68 -72 -85 -89 -96 0
-19 -21 -22 -27 -67 -68 -73 -85 -90 -97 0
-19 -21 -22 -28 -67 -68 -74 -85 -91 -98 0
-19 -21 -22 -29 -67 -68 -75 -85 -92 -99 0
-19 -21 -23 -24 -67 -69 -70 -86 -87 -100 0
-19 -21 -23 -25 -67 -69 -71 -86 -88 -101 0
-19 -21 -23 -26 -67 -69 -72 -86 -89 -102 0
-19 -21 -23 -27 -67 -69 -73 -86 -90 -103 0
-19 -21 -23 -28 -67 -69 -74 -86 -91 -104 0
-19 -21 -23 -29 -67 -69 -75 -86 -92 -105 0
-19 -21 -24 -25 -67 -70 -71 -87 -88 -106 0
-19 -21 -24 -26 -67 -70 -72 -87 -89 -107 0
-19 -21 -24 -27 -67 -70 -73 -87 -90 -108 0
-19 -21 -24 -28 -67 -70 -74 -87 -91 -109 0
-19 -21 -24 -29 -67 -70 -75 -87 -92 -110 0
-19 -21 -25 -26 -67 -71 -72 -88 -89 -111 0
-19 -21 -25 -27 -67 -71 -73 -88 -90 -112 0
-19 -21 -25 -28 -67 -71 -74 -88 -91 -113 0
-19 -21 -25 -29 -67 -71 -75 -88 -92 -114 0
-19 -21 -26 -27 -67 -72 -73 -89 -90 -115 0
-19 -21 -26 -28 -67 -72 -74 -89 -91 -116 0
-19 -21 -26 -29 -67 -72 -75 -89 -92 -117 0
-19 -21 -27 -28 -67 -73 -74 -90 -91 -118 0
-19 -21 -27 -29 -67 -73 -75 -90 -92 -119 0
-19 -21 -28 -29 -67 -74 -75 -91 -92 -120 0
-19 -22 -23 -24 -68 -69 -70 -93 -94 -100 0
-19 -22 -23 -25 -68 -69 -71 -93 -95 -101 0
-19 -22 -23 -26 -68 -69 -72 -93 -96 -102 0
-19 -22 -23 -27 -68 -69 -73 -93 -97 -103 0
-19 -22 -23 -28 -68 -69 -74 -93 -98 -104 0
-19 -22 -23 -29 -68 -69 -75 -93 -99 -105 0
-19 -22 -24 -25 -68 -70 -71 -94 -95 -106 0
-19 -22 -24 -26 -68 -70 -72 -94 -96 -107 0
-19 -22 -24 -27 -68 -70 -73 -94 -97 -108 0
-19 -22 -24 -28 -68 -70 -74 -94 -98 -109 0
-19 -22 -24 -29 -68 -70 -75 -94 -99 -110 0
-19 -22 -25 -26 -68 -71 -72 -95 -96 -111 0
-19 -22 -25 -27 -68 -71 -73 -95 -97 -112 0
-19 -22 -25 -28 -68 -71 -74 -95 -98 -113 0
-19 -22 -25 -29 -68 -71 -75 -95 -99 -114 0
-19 -22 -26 -27 -68 -72 -73 -96 -97 -115 0
-19 -22 -26 -28 -68 -72 -74 -96 -98 -116 0
-19 -22 -26 -29 -68 -72 -75 -96 -99 -117 0
-19 -22 -27 -28 -68 -73 -74 -97 -98 -118 0
-19 -22 -27 -29 -68 -73 -75 -97 -99 -119 0
-19 -22 -28 -29 -68 -74 -75 -98 -99 -120 0
-19 -23 -24 -25 -69 -70 -71 -100 -101 -106 0
-19 -23 -24 -26 -69 -70 -72 -100 -102 -107 0
-19 -23 -24 -27 -69 -70 -73 -100 -103 -108 0
-19 -23 -24 -28 -69 -70 -74 -100 -104 -109 0
-19 -23 -24 -29 -69 -70 -75 -100 -105 -110 0
-19 -23 -25 -26 -69 -71 -72 -101 -102 -111 0
-19 -23 -25 -27 -69 -71 -73 -101 -103 -112 0
-19 -23 -25 -28 -69 -71 -74 -101 -104 -113 0
-19 -23 -25 -29 -69 -71 -75 -101 -105 -114 0
-19 -23 -26 -27 -69 -72 -73 -102 -103 -115 0
-19 -23 -26 -28 -69 -72 -74 -102 -104 -116 0
-19 -23 -26 -29 -69 -72 -75 -102 -105 -117 0
-19 -23 -27 -28 -69 -73 -74 -103 -104 -118 0
-19 -23 -27 -29 -69 -73 -75 -103 -105 -119 0
-19 -23 -28 -29 -69 -74 -75 -104 -105 -120 0
-19 -24 -25 -26 -70 -71 -72 -106 -107 -111 0
-19 -24 -25 -27 -70 -71 -73 -106 -108 -112 0
-19 -24 -25 -28 -70 -71 -74 -106 -109 -113 0
-19 -24 -25 -29 -70 -71 -75 -106 -110 -114 0
-19 -24 -26 -27 -70 -72 -73 -107 -108 -115 0
-19 -24 -26 -28 -70 -72 -74 -107 -109 -116 0
-19 -24 -26 -29 -70 -72 -75 -107 -110 -117 0
-19 -24 -27 -28 -70 -73 -74 -108 -109 -118 0
-19 -24 -27 -29 -70 -73 -75 -108 -110 -119 0
-19 -24 -28 -29 -70 -74 -75 -109 -110 -120 0
-19 -25 -26 -27 -71 -72 -73 -111 -112 -115 0
-19 -25 -26 -28 -71 -72 -74 -111 -113 -116 0
-19 -25 -26 -29 -71 -72 -75 -111 -114 -117 0
-19 -25 -27 -28 -71 -73 -74 -112 -113 -118 0
-19 -25 -27 -29 -71 -73 -75 -112 -114 -119 0
-19 -25 -28 -29 -71 -74 -75 -113 -114 -120 0
-19 -26 -27 -28 -72 -73 -74 -115 -116 -118 0
-19 -26 -27 -29 -72 -73 -75 -115 -117 -119 0
-19 -26 -28 -29 -72 -74 -75 -116 -117 -120 0
-19 -27 -28 -29 -73 -74 -75 -118 -119 -120 0
-20 -21 -22 -23 -76 -77 -78 -85 -86 -93 0
-20 -21 -22 -24 -76 -77 -79 -85 -87 -94 0
-20 -21 -22 -25 -76 -77 -80 -85 -88 -95 0
-20 -21 -22 -26 -76 -77 -81 -85 -89 -96 0
-20 -21 -22 -27 -76 -77 -82 -85 -90 -97 0
-20 -21 -22 -28 -76 -77 -83 -85 -91 -98 0
-20 -21 -22 -29 -76 -77 -84 -85 -92 -99 0
-20 -21 -23 -24 -76 -78 -79 -86 -87 -100 0
-20 -21 -23 -25 -76 -78 -80 -86 -88 -101 0
-20 -21 -23 -26 -76 -78 -81 -86 -89 -102 0
-20 -21 -23 -27 -76 -78 -82 -86 -90 -103 0
-20 -21 -23 -28 -76 -78 -83 -86 -91 -104 0
-20 -21 -23 -29 -76 -78 -84 -86 -92 -105 0
-20 -21 -24 -25 -76 -79 -80 -87 -88 -106 0
-20 -21 -24 -26 -76 -79 -81 -87 -89 -107 0
-20 -21 -24 -27 -76 -79 -82 -87 -90 -108 0
-20 -21 -24 -28 -76 -79 -83 -87 -91 -109 0
-20 -21 -24 -29 -76 -79 -84 -87 -92 -110 0
-20 -21 -25 -26 -76 -80 -81 -88 -89 -111 0
-20 -21 -25 -27 -76 -80 -82 -88 -90 -112 0
-20 -21 -25 -28 -76 -80 -83 -88 -91 -113 0
-20 -21 -25 -29 -76 -80 -84 -88 -92 -114 0
-20 -21 -26 -27 -76 -81 -82 -89 -90 -115 0
-20 -21 -26 -28 -76 -81 -83 -89 -91 -116 0
-20 -21 -26 -29 -76 -81 -84 -89 -92 -117 0
-20 -21 -27 -28 -76 -82 -83 -90 -91 -118 0
-20 -21 -27 -29 -76 -82 -84 -90 -92 -119 0
-20 -21 -28 -29 -76 -83 -84 -91 -92 -120 0
-20 -22 -23 -24 -77 -78 -79 -93 -94 -100 0
-20 -22 -23 -25 -77 -78 -80 -93 -95 -101 0
-20 -22 -23 -26 -77 -78 -81 -93 -96 -102 0
-20 -22 -23 -27 -77 -78 -82 -93 -97 -103 0
-20 -22 -23 -28 -77 -78 -83 -93 -98 -104 0
-20 -22 -23 -29 -77 -78 -84 -93 -99 -105 0
-20 -22 -24 -25 -77 -79 -80 -94 -95 -106 0
-20 -22 -24 -26 -77 -79 -81 -94 -96 -107 0
-20 -22 -24 -27 -77 -79 -82 -94 -97 -108 0
-20 -22 -24 -28 -77 -79 -83 -94 -98 -109 0
-20 -22 -24 -29 -77 -79 -84 -94 -99 -110 0
-20 -22 -25 -26 -77 -80 -81 -95 -96 -111 0
-20 -22 -25 -27 -77 -80 -82 -95 -97 -112 0
-20 -22 -25 -28 -77 -80 -83 -95 -98 -113 0
-20 -22 -25 -29 -77 -80 -84 -95 -99 -114 0
-20 -22 -26 -27 -77 -81 -82 -96 -97 -115 0
-20 -22 -26 -28 -77 -81 -83 -96 -98 -116 0
-20 -22 -26 -29 -77 -81 -84 -96 -99 -117 0
-20 -22 -27 -28 -77 -82 -83 -97 -98 -118 0
-20 -22 -27 -29 -77 -82 -84 -97 -99 -119 0
-20 -22 -28 -29 -77 -83 -84 -98 -99 -120 0
-20 -23 -24 -25 -78 -79 -80 -100 -101 -106 0
-20 -23 -24 -26 -78 -79 -81 -100 -102 -107 0
-20 -23 -24 -27 -78 -79 -82 -100 -103 -108 0
-20 -23 -24 -28 -78 -79 -83 -100 -104 -109 0
-20 -23 -24 -29 -78 -79 -84 -100 -105 -110 0
-20 -23 -25 -26 -78 -80 -81 -101 -102 -111 0
-20 -23 -25 -27 -78 -80 -82 -101 -103 -112 0
-20 -23 -25 -28 -78 -80 -83 -101 -104 -113 0
-20 -23 -25 -29 -78 -80 -84 -101 -105 -114 0
-20 -23 -26 -27 -78 -81 -82 -102 -103 -115 0
-20 -23 -26 -28 -78 -81 -83 -102 -104 -116 0
-20 -23 -26 -29 -78 -81 -84 -102 -105 -117 0
-20 -23 -27 -28 -78 -82 -83 -103 -104 -118 0
-20 -23 -27 -29 -78 -82 -84 -103 -105 -119 0
-20 -23 -28 -29 -78 -83 -84 -104 -105 -120 0
-20 -24 -25 -26 -79 -80 -81 -106 -107 -111 0
-20 -24 -25 -27 -79 -80 -82 -106 -108 -112 0
-20 -24 -25 -28 -79 -80 -83 -106 -109 -113 0
-20 -24 -25 -29 -79 -80 -84 -106 -110 -114 0
-20 -24 -26 -27 -79 -81 -82 -107 -108 -115 0
-20 -24 -26 -28 -79 -81 -83 -107 -109 -116 0
-20 -24 -26 -29 -79 -81 -84 -107 -110 -117 0
-20 -24 -27 -28 -79 -82 -83 -108 -109 -118 0
-20 -24 -27 -29 -79 -82 -84 -108 -110 -119 0
-20 -24 -28 -29 -79 -83 -84 -109 -110 -120 0
-20 -25 -26 -27 -80 -81 -82 -111 -112 -115 0
-20 -25 -26 -28 -80 -81 -83 -111 -113 -116 0
-20 -25 -26 -29 -80 -81 -84 -111 -114 -117 0
-20 -25 -27 -28 -80 -82 -83 -112 -113 -118 0
-20 -25 -27 -29 -80 -82 -84 -112 -114 -119 0
-20 -25 -28 -29 -80 -83 -84 -113 -114 -120 0
-20 -26 -27 -28 -81 -82 -83 -115 -116 -118 0
-20 -26 -27 -29 -81 -82 -84 -115 -117 -119 0
-20 -26 -28 -29 -81 -83 -84 -116 -117 -120 0
-20 -27 -28 -29 -82 -83 -84 -118 -119 -120 0
-21 -22 -23 -24 -85 -86 -87 -93 -94 -100 0
-21 -22 -23 -25 -85 -86 -88 -93 -95 -101 0
-21 -22 -23 -26 -85 -86 -89 -93 -96 -102 0
-21 -22 -23 -27 -85 -86 -90 -93 -97 -103 0
-21 -22 -23 -28 -85 -86 -91 -93 -98 -104 0
-21 -22 -23 -29 -85 -86 -92 -93 -99 -105 0
-21 -22 -24 -25 -85 -87 -88 -94 -95 -106 0
-21 -22 -24 -26 -85 -87 -89 -94 -96 -107 0
-21 -22 -24 -27 -85 -87 -90 -94 -97 -108 0
-21 -22 -24 -28 -85 -87 -91 -94 -98 -109 0
-21 -22 -24 -29 -85 -87 -92 -94 -99 -110 0
-21 -22 -25 -26 -85 -88 -89 -95 -96 -111 0
-21 -22 -25 -27 -85 -88 -90 -95 -97 -112 0
-21 -22 -25 -28 -85 -88 -91 -95 -98 -113 0
-21 -22 -25 -29 -85 -88 -92 -95 -99 -114 0
-21 -22 -26 -27 -85 -89 -90 -96 -97 -115 0
-21 -22 -26 -28 -85 -89 -91 -96 -98 -116 0
-21 -22 -26 -29 -85 -89 -92 -96 -99 -117 0
-21 -22 -27 -28 -85 -90 -91 -97 -98 -118 0
-21 -22 -27 -29 -85 -90 -92 -97 -99 -119 0
-21 -22 -28 -29 -85 -91 -92 -98 -99 -120 0
-21 -23 -24 -25 -86 -87 -88 -100 -101 -106 0
-21 -23 -24 -26 -86 -87 -89 -100 -102 -107 0
-21 -23 -24 -27 -86 -87 -90 -100 -103 -108 0
-21 -23 -24 -28 -86 -87 -91 -100 -104 -109 0
-21 -23 -24 -29 -86 -87 -92 -100 -105 -110 0
-21 -23 -25 -26 -86 -88 -89 -101 -102 -111 0
-21 -23 -25 -27 -86 -88 -90 -101 -103 -112 0
-21 -23 -25 -28 -86 -88 -91 -101 -104 -113 0
-21 -23 -25 -29 -86 -88 -92 -101 -105 -114 0
-21 -23 -26 -27 -86 -89 -90 -102 -103 -115 0
-21 -23 -26 -28 -86 -89 -91 -102 -104 -116 0
-21 -23 -26 -29 -86 -89 -92 -102 -105 -117 0
-21 -23 -27 -28 -86 -90 -91 -103 -104 -118 0
-21 -23 -27 -29 -86 -90 -92 -103 -105 -119 0
-21 -23 -28 -29 -86 -91 -92 -104 -105 -120 0
-21 -24 -25 -26 -87 -88 -89 -106 -107 -111 0
-21 -24 -25 -27 -87 -88 -90 -106 -108 -112 0
-21 -24 -25 -28 -87 -88 -91 -106 -109 -113 0
-21 -24 -25 -29 -87 -88 -92 -106 -110 -114 0
-21 -24 -26 -27 -87 -89 -90 -107 -108 -115 0
-21 -24 -26 -28 -87 -89 -91 -107 -109 -116 0
-21 -24 -26 -29 -87 -89 -92 -107 -110 -117 0
-21 -24 -27 -28 -87 -90 -91 -108 -109 -118 0
-21 -24 -27 -29 -87 -90 -92 -108 -110 -119 0
-21 -24 -28 -29 -87 -91 -92 -109 -110 -120 0
-21 -25 -26 -27 -88 -89 -90 -111 -112 -115 0
-21 -25 -26 -28 -88 -89 -91 -111 -113 -116 0
-21 -25 -26 -29 -88 -89 -92 -111 -114 -117 0
-21 -25 -27 -28 -88 -90 -91 -112 -113 -118 0
-21 -25 -27 -29 -88 -90 -92 -112 -114 -119 0
-21 -25 -28 -29 -88 -91 -92 -113 -114 -120 0
-21 -26 -27 -28 -89 -90 -91 -115 -116 -118 0
-21 -26 -27 -29 -89 -90 -92 -115 -117 -119 0
-21 -26 -28 -29 -89 -91 -92 -116 -117 -120 0
-21 -27 -28 -29 -90 -91 -92 -118 -119 -120 0
-22 -23 -24 -25 -93 -94 -95 -100 -101 -106 0
-22 -23 -24 -26 -93 -94 -96 -100 -102 -107 0
-22 -23 -24 -27 -93 -94 -97 -100 -103 -108 0
-22 -23 -24 -28 -93 -94 -98 -100 -104 -109 0
-22 -23 -24 -29 -93 -94 -99 -100 -105 -110 0
-22 -23 -25 -26 -93 -95 -96 -101 -102 -111 0
-22 -23 -25 -27 -93 -95 -97 -101 -103 -112 0
-22 -23 -25 -28 -93 -95 -98 -101 -104 -113 0
-22 -23 -25 -29 -93 -95 -99 -101 -105 -114 0
-22 -23 -26 -27 -93 -96 -97 -102 -103 -115 0
-22 -23 -26 -28 -93 -96 -98 -102 -104 -116 0
-22 -23 -26 -29 -93 -96 -99 -102 -105 -117 0
-22 -23 -27 -28 -93 -97 -98 -103 -104 -118 0
-22 -23 -27 -29 -93 -97 -99 -103 -105 -119 0
-22 -23 -28 -29 -93 -98 -99 -104 -105 -120 0
-22 -24 -25 -26 -94 -95 -96 -106 -107 -111 0
-22 -24 -25 -27 -94 -95 -97 -106 -108 -112 0
-22 -24 -25 -28 -94 -95 -98 -106 -109 -113 0
-22 -24 -25 -29 -94 -95 -99 -106 -110 -114 0
-22 -24 -26 -27 -94 -96 -97 -107 -108 -115 0
-22 -24 -26 -28 -94 -96 -98 -107 -109 -116 0
-22 -24 -26 -29 -94 -96 -99 -107 -110 -117 0
-22 -24 -27 -28 -94 -97 -98 -108 -109 -118 0
-22 -24 -27 -29 -94 -97 -99 -108 -110 -119 0
-22 -24 -28 -29 -94 -98 -99 -109 -110 -120 0
-22 -25 -26 -27 -95 -96 -97 -111 -112 -115 0
-22 -25 -26 -28 -95 -96 -98 -111 -113 -116 0
-22 -25 -26 -29 -95 -96 -99 -111 -114 -117 0
-22 -25 -27 -28 -95 -97 -98 -112 -113 -118 0
-22 -25 -27 -29 -95 -97 -99 -112 -114 -119 0
-22 -25 -28 -29 -95 -98 -99 -113 -114 -120 0
-22 -26 -27 -28 -96 -97 -98 -115 -116 -118 0
-22 -26 -27 -29 -96 -97 -99 -115 -117 -119 0
-22 -26 -28 -29 -96 -98 -99 -116 -117 -120 0
-22 -27 -28 -29 -97 -98 -99 -118 -119 -120 0
-23 -24 -25 -26 -100 -101 -102 -106 -107 -111 0
-23 -24 -25 -27 -100 -101 -103 -106 -108 -112 0
-23 -24 -25 -28 -100 -101 -104 -106 -109 -113 0
-23 -24 -25 -29 -100 -101 -105 -106 -110 -114 0
-23 -24 -26 -27 -100 -102 -103 -107 -108 -115 0
-23 -24 -26 -28 -100 -102 -104 -107 -109 -116 0
-23 -24 -26 -29 -100 -102 -105 -107 -110 -117 0
-23 -24 -27 -28 -100 -103 -104 -108 -109 -118 0
-23 -24 -27 -29 -100 -103 -105 -108 -110 -119 0
-23 -24 -28 -29 -100 -104 -105 -109 -110 -120 0
-23 -25 -26 -27 -101 -102 -103 -111 -112 -115 0
-23 -25 -26 -28 -101 -102 -104 -111 -113 -116 0
-23 -25 -26 -29 -101 -102 -105 -111 -114 -117 0
-23 -25 -27 -28 -101 -103 -104 -112 -113 -118 0
-23 -25 -27 -29 -101 -103 -105 -112 -114 -119 0
-23 -25 -28 -29 -101 -104 -105 -113 -114 -120 0
-23 -26 -27 -28 -102 -103 -104 -115 -116 -118 0
-23 -26 -27 -29 -102 -103 -105 -115 -117 -119 0
-23 -26 -28 -29 -102 -104 -105 -116 -117 -120 0
-23 -27 -28 -29 -103 -104 -105 -118 -119 -120 0
-24 -25 -26 -27 -106 -107 -108 -111 -112 -115 0
-24 -25 -26 -28 -106 -107 -109 -111 -113 -116 0
-24 -25 -26 -29 -106 -107 -110 -111 -114 -117 0
-24 -25 -27 -28 -106 -108 -109 -112 -113 -118 0
-24 -25 -27 -29 -106 -108 -110 -112 -114 -119 0
-24 -25 -28 -29 -106 -109 -110 -113 -114 -120 0
-24 -26 -27 -28 -107 -108 -109 -115 -116 -118 0
-24 -26 -27 -29 -107 -108 -110 -115 -117 -119 0
-24 -26 -28 -29 -107 -109 -110 -116 -117 -120 0
-24 -27 -28 -29 -108 -109 -110 -118 -119 -120 0
-25 -26 -27 -28 -111 -112 -113 -115 -116 -118 0
-25 -26 -27 -29 -111 -112 -114 -115 -117 -119 0
-25 -26 -28 -29 -111 -113 -114 -116 -117 -120 0
-25 -27 -28 -29 -112 -113 -114 -118 -119 -120 0
-26 -27 -28 -29 -115 -116 -117 -118 -119 -120 0
-30 -31 -32 -33 -43 -44 -45 -55 -56 -66 0
-30 -31 -32 -34 -43 -44 -46 -55 -57 -67 0
-30 -31 -32 -35 -43 -44 -47 -55 -58 -68 0
-30 -31 -32 -36 -43 -44 -48 -55 -59 -69 0
-30 -31 -32 -37 -43 -44 -49 -55 -60 -70 0
-30 -31 -32 -38 -43 -44 -50 -55 -61 -71 0
-30 -31 -32 -39 -43 -44 -51 -55 -62 -72 0
-30 -31 -32 -40 -43 -44 -52 -55 -63 -73 0
-30 -31 -32 -41 -43 -44 -53 -55 -64 -74 0
-30 -31 -32 -42 -43 -44 -54 -55 -65 -75 0
-30 -31 -33 -34 -43 -45 -46 -56 -57 -76 0
-30 -31 -33 -35 -43 -45 -47 -56 -58 -77 0
-30 -31 -33 -36 -43 -45 -48 -56 -59 -78 0
-30 -31 -33 -37 -43 -45 -49 -56 -60 -79 0
-30 -31 -33 -38 -43 -45 -50 -56 -61 -80 0
-30 -31 -33 -39 -43 -45 -51 -56 -62 -81 0
-30 -31 -33 -40 -43 -45 -52 -56 -63 -82 0
-30 -31 -33 -41 -43 -45 -53 -56 -64 -83 0
-30 -31 -33 -42 -43 -45 -54 -56 -65 -84 0
-30 -31 -34 -35 -43 -46 -47 -57 -58 -85 0
-30 -31 -34 -36 -43 -46 -48 -57 -59 -86 0
-30 -31 -34 -37 -43 -46 -49 -57 -60 -87 0
-30 -31 -34 -38 -43 -46 -50 -57 -61 -88 0
-30 -31 -34 -39 -43 -46 -51 -57 -62 -89 0
-30 -31 -34 -40 -43 -46 -52 -57 -63 -90 0
-30 -31 -34 -41 -43 -46 -53 -57 -64 -91 0
-30 -31 -34 -42 -43 -46 -54 -57 -65 -92 0
-30 -31 -35 -36 -43 -47 -48 -58 -59 -93 0
-30 -31 -35 -37 -43 -47 -49 -58 -60 -94 0
-30 -31 -35 -38 -43 -47 -50 -58 -61 -95 0
-30 -31 -35 -39 -43 -47 -51 -58 -62 -96 0
-30 -31 -35 -40 -43 -47 -52 -58 -63 -97 0
-30 -31 -35 -41 -43 -47 -53 -58 -64 -98 0
-30 -31 -35 -42 -43 -47 -54 -58 -65 -99 0
-30 -31 -36 -37 -43 -48 -49 -59 -60 -100 0
-30 -31 -36 -38 -43 -48 -50 -59 -61 -101 0
-30 -31 -36 -39 -43 -48 -51 -59 -62 -102 0
-30 -31 -36 -40 -43 -48 -52 -59 -63 -103 0
-30 -31 -36 -41 -43 -48 -53 -59 -64 -104 0
-30 -31 -36 -42 -43 -48 -54 -59 -65 -105 0
-30 -31 -37 -38 -43 -49 -50 -60 -61 -106 0
-30 -31 -37 -39 -43 -49 -51 -60 -62 -107 0
-30 -31 -37 -40 -43 -49 -52 -60 -63 -108 0
-30 -31 -37 -41 -43 -49 -53 -60 -64 -109 0
-30 -31 -37 -42 -43 -49 -54 -60 -65 -110 0
-30 -31 -38 -39 -43 -50 -51 -61 -62 -111 0
-30 -31 -38 -40 -43 -50 -52 -61 -63 -112 0
-30 -31 -38 -41 -43 -50 -53 -61 -64 -113 0
-30 -31 -38 -42 -43 -50 -54 -61 -65 -114 0
-30 -31 -39 -40 -43 -51 -52 -62 -63 -115 0
-30 -31 -39 -41 -43 -51 -53 -62 -64 -116 0
-30 -31 -39 -42 -43 -51 -54 -62 -65 -117 0
-30 -31 -40 -41 -43 -52 -53 -63 -64 -118 0
-30 -31 -40 -42 -43 -52 -54 -63 -65 -119 0
-30 -31 -41 -42 -43 -53 -54 -64 -65 -120 0
-30 -32 -33 -34 -44 -45 -46 -66 -67 -76 0
-30 -32 -33 -35 -44 -45 -47 -66 -68 -77 0
-30 -32 -33 -36 -44 -45 -48 -66 -69 -78 0
-30 -32 -33 -37 -44 -45 -49 -66 -70 -79 0
-30 -32 -33 -38 -44 -45 -50 -66 -71 -80 0
-30 -32 -33 -39 -44 -45 -51 -66 -72 -81 0
-30 -32 -33 -40 -44 -45 -52 -66 -73 -82 0
-30 -32 -33 -41 -44 -45 -53 -66 -74 -83 0
-30 -32 -33 -42 -44 -45 -54 -66 -75 -84 0
-30 -32 -34 -35 -44 -46 -47 -67 -68 -85 0
-30 -32 -34 -36 -44 -46 -48 -67 -69 -86 0
-30 -32 -34 -37 -44 -46 -49 -67 -70 -87 0
-30 -32 -34 -38 -44 -46 -50 -67 -71 -88 0
-30 -32 -34 -39 -44 -46 -51 -67 -72 -89 0
-30 -32 -34 -40 -44 -46 -52 -67 -73 -90 0
-30 -32 -34 -41 -44 -46 -53 -67 -74 -91 0
-30 -32 -34 -42 -44 -46 -54 -67 -75 -92 0
-30 -32 -35 -36 -44 -47 -48 -68 -69 -93 0
-30 -32 -35 -37 -44 -47 -49 -68 -70 -94 0
-30 -32 -35 -38 -44 -47 -50 -68 -71 -95 0
-30 -32 -35 -39 -44 -47 -51 -68 -72 -96 0
-30 -32 -35 -40 -44 -47 -52 -68 -73 -97 0
-30 -32 -35 -41 -44 -47 -53 -68 -74 -98 0
-30 -32 -35 -42 -44 -47 -54 -68 -75 -99 0
-30 -32 -36 -37 -44 -48 -49 -69 -70 -100 0
-30 -32 -36 -38 -44 -48 -50 -69 -71 -101 0
-30 -32 -36 -39 -44 -48 -51 -69 -72 -102 0
-30 -32 -36 -40 -44 -48 -52 -69 -73 -103 0
-30 -32 -36 -41 -44 -48 -53 -69 -74 -104 0
-30 -32 -36 -42 -44 -48 -54 -69 -75 -105 0
-30 -32 -37 -38 -44 -49 -50 -70 -71 -106 0
-30 -32 -37 -39 -44 -49 -51 -70 -72 -107 0
-30 -32 -37 -40 -44 -49 -52 -70 -73 -108 0
-30 -32 -37 -41 -44 -49 -53 -70 -74 -109 0
-30 -32 -37 -42 -44 -49 -54 -70 -75 -110 0
-30 -32 -38 -39 -44 -50 -51 -71 -72 -111 0
-30 -32 -38 -40 -44 -50 -52 -71 -73 -112 0
-30 -32 -38 -41 -44 -50 -53 -71 -74 -113 0
-30 -32 -38 -42 -44 -50 -54 -71 -75 -114 0
-30 -32 -39 -40 -44 -51 -52 -72 -73 -115 0
-30 -32 -39 -41 -44 -51 -53 -72 -74 -116 0
-30 -32 -39 -42 -44 -51 -54 -72 -75 -117 0
-30 -32 -40 -41 -44 -52 -53 -73 -74 -118 0
-30 -32 -40 -42 -44 -52 -54 -73 -75 -119 0
-30 -32 -41 -42 -44 -53 -54 -74 -75 -120 0
-30 -33 -34 -35 -45 -46 -47 -76 -77 -85 0
-30 -33 -34 -36 -45 -46 -48 -76 -78 -86 0
-30 -33 -34 -37 -45 -46 -49 -76 -79 -87 0
-30 -33 -34 -38 -45 -46 -50 -76 -80 -88 0
-30 -33 -34 -39 -45 -46 -51 -76 -81 -89 0
-30 -33 -34 -40 -45 -46 -52 -76 -82 -90 0
-30 -33 -34 -41 -45 -46 -53 -76 -83 -91 0
-30 -33 -34 -42 -45 -46 -54 -76 -84 -92 0
-30 -33 -35 -36 -45 -47 -48 -77 -78 -93 0
-30 -33 -35 -37 -45 -47 -49 -77 -79 -94 0
-30 -33 -35 -38 -45 -47 -50 -77 -80 -95 0
-30 -33 -35 -39 -45 -47 -51 -77 -81 -96 0
-30 -33 -35 -40 -45 -47 -52 -77 -82 -97 0
-30 -33 -35 -41 -45 -47 -53 -77 -83 -98 0
-30 -33 -35 -42 -45 -47 -54 -77 -84 -99 0
-30 -33 -36 -37 -45 -48 -49 -78 -79 -100 0
-30 -33 -36 -38 -45 -48 -50 -78 -80 -101 0
-30 -33 -36 -39 -45 -48 -51 -78 -81 -102 0
-30 -33 -36 -40 -45 -48 -52 -78 -82 -103 0
-30 -33 -36 -41 -45 -48 -53 -78 -83 -104 0
-30 -33 -36 -42 -45 -48 -54 -78 -84 -105 0
-30 -33 -37 -38 -45 -49 -50 -79 -80 -106 0
-30 -33 -37 -39 -45 -49 -51 -79 -81 -107 0
-30 -33 -37 -40 -45 -49 -52 -79 -82 -108 0
-30 -33 -37 -41 -45 -49 -53 -79 -83 -109 0
-30 -33 -37 -42 -45 -49 -54 -79 -84 -110 0
-30 -33 -38 -39 -45 -50 -51 -80 -81 -111 0
-30 -33 -38 -40 -45 -50 -52 -80 -82 -112 0
-30 -33 -38 -41 -45 -50 -53 -80 -83 -113 0
-30 -33 -38 -42 -45 -50 -54 -80 -84 -114 0
-30 -33 -39 -40 -45 -51 -52 -81 -82 -115 0
-30 -33 -39 -41 -45 -51 -53 -81 -83 -116 0
-30 -33 -39 -42 -45 -51 -54 -81 -84 -117 0
-30 -33 -40 -41 -45 -52 -53 -82 -83 -118 0
-30 -33 -40 -42 -45 -52 -54 -82 -84 -119 0
-30 -33 -41 -42 -45 -53 -54 -83 -84 -120 0
-30 -34 -35 -36 -46 -47 -48 -85 -86 -93 0
-30 -34 -35 -37 -46 -47 -49 -85 -87 -94 0
-30 -34 -35 -38 -46 -47 -50 -85 -88 -95 0
-30 -34 -35 -39 -46 -47 -51 -85 -89 -96 0
-30 -34 -35 -40 -46 -47 -52 -85 -90 -97 0
-30 -34 -35 -41 -46 -47 -53 -85 -91 -98 0
-30 -34 -35 -42 -46 -47 -54 -85 -92 -99 0
-30 -34 -36 -37 -46 -48 -49 -86 -87 -100 0
-30 -34 -36 -38 -46 -48 -50 -86 -88 -101 0
-30 -34 -36 -39 -46 -48 -51 -86 -89 -102 0
-30 -34 -36 -40 -46 -48 -52 -86 -90 -103 0
-30 -34 -36 -41 -46 -48 -53 -86 -91 -104 0
-30 -34 -36 -42 -46 -48 -54 -86 -92 -105 0
-30 -34 -37 -38 -46 -49 -50 -87 -88 -106 0
-30 -34 -37 -39 -46 -49 -51 -87 -89 -107 0
-30 -34 -37 -40 -46 -49 -52 -87 -90 -108 0
-30 -34 -37 -41 -46 -49 -53 -87 -91 -109 0
-30 -34 -37 -42 -46 -49 -54 -87 -92 -110 0
-30 -34 -38 -39 -46 -50 -51 -88 -89 -111 0
-30 -34 -38 -40 -46 -50 -52 -88 -90 -112 0
-30 -34 -38 -41 -46 -50 -53 -88 -91 -113 0
-30 -34 -38 -42 -46 -50 -54 -88 -92 -114 0
-30 -34 -39 -40 -46 -51 -52 -89 -90 -115 0
-30 -34 -39 -41 -46 -51 -53 -89 -91 -116 0
-30 -34 -39 -42 -46 -51 -54 -89 -92 -117 0
-30 -34 -40 -41 -46 -52 -53 -90 -91 -118 0
-30 -34 -40 -42 -46 -52 -54 -90 -92 -119 0
-30 -34 -41 -42 -46 -53 -54 -91 -92 -120 0
-30 -35 -36 -37 -47 -48 -49 -93 -94 -100 0
-30 -35 -36 -38 -47 -48 -50 -93 -95 -101 0
-30 -35 -36 -39 -47 -48 -51 -93 -96 -102 0
-30 -35 -36 -40 -47 -48 -52 -93 -97 -103 0
-30 -35 -36 -41 -47 -48 -53 -93 -98 -104 0
-30 -35 -36 -42 -47 -48 -54 -93 -99 -105 0
-30 -35 -37 -38 -47 -49 -50 -94 -95 -106 0
-30 -35 -37 -39 -47 -49 -51 -94 -96 -107 0
-30 -35 -37 -40 -47 -49 -52 -94 -97 -108 0
-30 -35 -37 -41 -47 -49 -53 -94 -98 -109 0
-30 -35 -37 -42 -47 -49 -54 -94 -99 -110 0
-30 -35 -38 -39 -47 -50 -51 -95 -96 -111 0
-30 -35 -38 -40 -47 -50 -52 -95 -97 -112 0
-30 -35 -38 -41 -47 -50 -53 -95 -98 -113 0
-30 -35 -38 -42 -47 -50 -54 -95 -99 -114 0
-30 -35 -39 -40 -47 -51 -52 -96 -97 -115 0
-30 -35 -39 -41 -47 -51 -53 -96 -98 -116 0
-30 -35 -39 -42 -47 -51 -54 -96 -99 -117 0
-30 -35 -40 -41 -47 -52 -53 -97 -98 -118 0
-30 -35 -40 -42 -47 -52 -54 -97 -99 -119 0
-30 -35 -41 -42 -47 -53 -54 -98 -99 -120 0
-30 -36 -37 -38 -48 -49 -50 -100 -101 -106 0
-30 -36 -37 -39 -48 -49 -51 -100 -102 -107 0
-30 -36 -37 -40 -48 -49 -52 -100 -103 -108 0
-30 -36 -37 -41 -48 -49 -53 -100 -104 -109 0
-30 -36 -37 -42 -48 -49 -54 -100 -105 -110 0
-30 -36 -38 -39 -48 -50 -51 -101 -102 -111 0
-30 -36 -38 -40 -48 -50 -52 -101 -103 -112 0
-30 -36 -38 -41 -48 -50 -53 -101 -104 -113 0
-30 -36 -38 -42 -48 -50 -54 -101 -105 -114 0
-30 -36 -39 -40 -48 -51 -52 -102 -103 -115 0
-30 -36 -39 -41 -48 -51 -53 -102 -104 -116 0
-30 -36 -39 -42 -48 -51 -54 -102 -105 -117 0
-30 -36 -40 -41 -48 -52 -53 -103 -104 -118 0
-30 -36 -40 -42 -48 -52 -54 -103 -105 -119 0
-30 -36 -41 -42 -48 -53 -54 -104 -105 -120 0
-30 -37 -38 -39 -49 -50 -51 -106 -107 -111 0
-30 -37 -38 -40 -49 -50 -52 -106 -108 -112 0
-30 -37 -38 -41 -49 -50 -53 -106 -109 -113 0
-30 -37 -38 -42 -49 -50 -54 -106 -110 -114 0
-30 -37 -39 -40 -49 -51 -52 -107 -108 -115 0
-30 -37 -39 -41 -49 -51 -53 -107 -109 -116 0
-30 -37 -39 -42 -49 -51 -54 -107 -110 -117 0
-30 -37 -40 -41 -49 -52 -53 -108 -109 -118 0
-30 -37 -40 -42 -49 -52 -54 -108 -110 -119 0
-30 -37 -41 -42 -49 -53 -54 -109 -110 -120 0
-30 -38 -39 -40 -50 -51 -52 -111 -112 -115 0
-30 -38 -39 -41 -50 -51 -53 -111 -113 -116 0
-30 -38 -39 -42 -50 -51 -54 -111 -114 -117 0
-30 -38 -40 -41 -50 -52 -53 -112 -113 -118 0
-30 -38 -40 -42 -50 -52 -54 -112 -114 -119 0
-30 -38 -41 -42 -50 -53 -54 -113 -114 -120 0
-30 -39 -40 -41 -51 -52 -53 -115 -116 -118 0
-30 -39 -40 -42 -51 -52 -54 -115 -117 -119 0
-30 -39 -41 -42 -51 -53 -54 -116 -117 -120 0
-30 -40 -41 -42 -52 -53 -54 -118 -119 -120 0
-31 -32 -33 -34 -55 -56 -57 -66 -67 -76 0
-31 -32 -33 -35 -55 -56 -58 -66 -68 -77 0
-31 -32 -33 -36 -55 -56 -59 -66 -69 -78 0
-31 -32 -33 -37 -55 -56 -60 -66 -70 -79 0
-31 -32 -33 -38 -55 -56 -61 -66 -71 -80 0
-31 -32 -33 -39 -55 -56 -62 -66 -72 -81 0
-31 -32 -33 -40 -55 -56 -63 -66 -73 -82 0
-31 -32 -33 -41 -55 -56 -64 -66 -74 -83 0
-31 -32 -33 -42 -55 -56 -65 -66 -75 -84 0
-31 -32 -34 -35 -55 -57 -58 -67 -68 -85 0
-31 -32 -34 -36 -55 -57 -59 -67 -69 -86 0
-31 -32 -34 -37 -55 -57 -60 -67 -70 -87 0
-31 -32 -34 -38 -55 -57 -61 -67 -71 -88 0
-31 -32 -34 -39 -55 -57 -62 -67 -72 -89 0
-31 -32 -34 -40 -55 -57 -63 -67 -73 -90 0
-31 -32 -34 -41 -55 -57 -64 -67 -74 -91 0
-31 -32 -34 -42 -55 -57 -65 -67 -75 -92 0
-31 -32 -35 -36 -55 -58 -59 -68 -69 -93 0
-31 -32 -35 -37 -55 -58 -60 -68 -70 -94 0
-31 -32 -35 -38 -55 -58 -61 -68 -71 -95 0
-31 -32 -35 -39 -55 -58 -62 -68 -72 -96 0
-31 -32 -35 -40 -55 -58 -63 -68 -73 -97 0
-31 -32 -35 -41 -55 -58 -64 -68 -74 -98 0
-31 -32 -35 -42 -55 -58 -65 -68 -75 -99 0
-31 -32 -36 -37 -55 -59 -60 -69 -70 -100 0
-31 -32 -36 -38 -55 -59 -61 -69 -71 -101 0
-31 -32 -36 -39 -55 -59 -62 -69 -72 -102 0
-31 -32 -36 -40 -55 -59 -63 -69 -73 -103 0
-31 -32 -36 -41 -55 -59 -64 -69 -74 -104 0
-31 -32 -36 -42 -55 -59 -65 -69 -75 -105 0
-31 -32 -37 -38 -55 -60 -61 -70 -71 -106 0
-31 -32 -37 -39 -55 -60 -62 -70 -72 -107 0
-31 -32 -37 -40 -55 -60 -63 -70 -73 -108 0
-31 -32 -37 -41 -55 -60 -64 -70 -74 -109 0
-31 -32 -37 -42 -55 -60 -65 -70 -75 -110 0
-31 -32 -38 -39 -55 -61 -62 -71 -72 -111 0
-31 -32 -38 -40 -55 -61 -63 -71 -73 -112 0
-31 -32 -38 -41 -55 -61 -64 -71 -74 -113 0
-31 -32 -38 -42 -55 -61 -65 -71 -75 -114 0
-31 -32 -39 -40 -55 -62 -63 -72 -73 -115 0
-31 -32 -39 -41 -55 -62 -64 -72 -74 -116 0
-31 -32 -39 -42 -55 -62 -65 -72 -75 -117 0
-31 -32 -40 -41 -55 -63 -64 -73 -74 -118 0
-31 -32 -40 -42 -55 -63 -65 -73 -75 -119 0
-31 -32 -41 -42 -55 -64 -65 -74 -75 -120 0
-31 -33 -34 -35 -56 -57 -58 -76 -77 -85 0
-31 -33 -34 -36 -56 -57 -59 -76 -78 -86 0
-31 -33 -34 -37 -56 -57 -60 -76 -79 -87 0
-31 -33 -34 -38 -56 -57 -61 -76 -80 -88 0
-31 -33 -34 -39 -56 -57 -62 -76 -81 -89 0
-31 -33 -34 -40 -56 -57 -63 -76 -82 -90 0
-31 -33 -34 -41 -56 -57 -64 -76 -83 -91 0
-31 -33 -34 -42 -56 -57 -65 -76 -84 -92 0
-31 -33 -35 -36 -56 -58 -59 -77 -78 -93 0
-31 -33 -35 -37 -56 -58 -60 -77 -79 -94 0
-31 -33 -35 -38 -56 -58 -61 -77 -80 -95 0
-31 -33 -35 -39 -56 -58 -62 -77 -81 -96 0
-31 -33 -35 -40 -56 -58 -63 -77 -82 -97 0
-31 -33 -35 -41 -56 -58 -64 -77 -83 -98 0
-31 -33 -35 -42 -56 -58 -65 -77 -84 -99 0
-31 -33 -36 -37 -56 -59 -60 -78 -79 -100 0
-31 -33 -36 -38 -56 -59 -61 -78 -80 -101 0
-31 -33 -36 -39 -56 -59 -62 -78 -81 -102 0
-31 -33 -36 -40 -56 -59 -63 -78 -82 -103 0
-31 -33 -36 -41 -56 -59 -64 -78 -83 -104 0
-31 -33 -36 -42 -56 -59 -65 -78 -84 -105 0
-31 -33 -37 -38 -56 -60 -61 -79 -80 -106 0
-31 -33 -37 -39 -56 -60 -62 -79 -81 -107 0
-31 -33 -37 -40 -56 -60 -63 -79 -82 -108 0
-31 -33 -37 -41 -56 -60 -64 -79 -83 -109 0
-31 -33 -37 -42 -56 -60 -65 -79 -84 -110 0
-31 -33 -38 -39 -56 -61 -62 -80 -81 -111 0
-31 -33 -38 -40 -56 -61 -63 -80 -82 -112 0
-31 -33 -38 -41 -56 -61 -64 -80 -83 -113 0
-31 -33 -38 -42 -56 -61 -65 -80 -84 -114 0
-31 -33 -39 -40 -56 -62 -63 -81 -82 -115 0
-31 -33 -39 -41 -56 -62 -64 -81 -83 -116 0
-31 -33 -39 -42 -56 -62 -65 -81 -84 -117 0
-31 -33 -40 -41 -56 -63 -64 -82 -83 -118 0
-31 -33 -40 -42 -56 -63 -65 -82 -84 -119 0
-31 -33 -41 -42 -56 -64 -65 -83 -84 -120 0
-31 -34 -35 -36 -57 -58 -59 -85 -86 -93 0
-31 -34 -35 -37 -57 -58 -60 -85 -87 -94 0
-31 -34 -35 -38 -57 -58 -61 -85 -88 -95 0
-31 -34 -35 -39 -57 -58 -62 -85 -89 -96 0
-31 -34 -35 -40 -57 -58 -63 -85 -90 -97 0
-31 -34 -35 -41 -57 -58 -64 -85 -91 -98 0
-31 -34 -35 -42 -57 -58 -65 -85 -92 -99 0
-31 -34 -36 -37 -57 -59 -60 -86 -87 -100 0
-31 -34 -36 -38 -57 -59 -61 -86 -88 -101 0
-31 -34 -36 -39 -57 -59 -62 -86 -89 -102 0
-31 -34 -36 -40 -57 -59 -63 -86 -90 -103 0
-31 -34 -36 -41 -57 -59 -64 -86 -91 -104 0
-31 -34 -36 -42 -57 -59 -65 -86 -92 -105 0
-31 -34 -37 -38 -57 -60 -61 -87 -88 -106 0
-31 -34 -37 -39 -57 -60 -62 -87 -89 -107 0
-31 -34 -37 -40 -57 -60 -63 -87 -90 -108 0
-31 -34 -37 -41 -57 -60 -64 -87 -91 -109 0
-31 -34 -37 -42 -57 -60 -65 -87 -92 -110 0
-31 -34 -38 -39 -57 -61 -62 -88 -89 -111 0
-31 -34 -38 -40 -57 -61 -63 -88 -90 -112 0
-31 -34 -38 -41 -57 -61 -64 -88 -91 -113 0
-31 -34 -38 -42 -57 -61 -65 -88 -92 -114 0
-31 -34 -39 -40 -57 -62 -63 -89 -90 -115 0
-31 -34 -39 -41 -57 -62 -64 -89 -91 -116 0
-31 -34 -39 -42 -57 -62 -65 -89 -92 -117 0
-31 -34 -40 -41 -57 -63 -64 -90 -91 -118 0
-31 -34 -40 -42 -57 -63 -65 -90 -92 -119 0
-31 -34 -41 -42 -57 -64 -65 -91 -92 -120 0
-31 -35 -36 -37 -58 -59 -60 -93 -94 -100 0
-31 -35 -36 -38 -58 -59 -61 -93 -95 -101 0
-31 -35 -36 -39 -58 -59 -62 -93 -96 -102 0
-31 -35 -36 -40 -58 -59 -63 -93 -97 -103 0
-31 -35 -36 -41 -58 -59 -64 -93 -98 -104 0
-31 -35 -36 -42 -58 -59 -65 -93 -99 -105 0
-31 -35 -37 -38 -58 -60 -61 -94 -95 -106 0
-31 -35 -37 -39 -58 -60 -62 -94 -96 -107 0
-31 -35 -37 -40 -58 -60 -63 -94 -97 -108 0
-31 -35 -37 -41 -58 -60 -64 -94 -98 -109 0
-31 -35 -37 -42 -58 -60 -65 -94 -99 -110 0
-31 -35 -38 -39 -58 -61 -62 -95 -96 -111 0
-31 -35 -38 -40 -58 -61 -63 -95 -97 -112 0
-31 -35 -38 -41 -58 -61 -64 -95 -98 -113 0
-31 -35 -38 -42 -58 -61 -65 -95 -99 -114 0
-31 -35 -39 -40 -58 -62 -63 -96 -97 -115 0
-31 -35 -39 -41 -58 -62 -64 -96 -98 -116 0
-31 -35 -39 -42 -58 -62 -65 -96 -99 -117 0
-31 -35 -40 -41 -58 -63 -64 -97 -98 -118 0
-31 -35 -40 -42 -58 -63 -65 -97 -99 -119 0
-31 -35 -41 -42 -58 -64 -65 -98 -99 -120 0
-31 -36 -37 -38 -59 -60 -61 -100 -101 -106 0
-31 -36 -37 -39 -59 -60 -62 -100 -102 -107 0
-31 -36 -37 -40 -59 -60 -63 -100 -103 -108 0
-31 -36 -37 -41 -59 -60 -64 -100 -104 -109 0
-31 -36 -37 -42 -59 -60 -65 -100 -105 -110 0
-31 -36 -38 -39 -59 -61 -62 -101 -102 -111 0
-31 -36 -38 -40 -59 -61 -63 -101 -103 -112 0
-31 -36 -38 -41 -59 -61 -64 -101 -104 -113 0
-31 -36 -38 -42 -59 -61 -65 -101 -105 -114 0
-31 -36 -39 -40 -59 -62 -63 -102 -103 -115 0
-31 -36 -39 -41 -59 -62 -64 -102 -104 -116 0
-31 -36 -39 -42 -59 -62 -65 -102 -105 -117 0
-31 -36 -40 -41 -59 -63 -64 -103 -104 -118 0
-31 -36 -40 -42 -59 -63 -65 -103 -105 -119 0
-31 -36 -41 -42 -59 -64 -65 -104 -105 -120 0
-31 -37 -38 -39 -60 -61 -62 -106 -107 -111 0
-31 -37 -38 -40 -60 -61 -63 -106 -108 -112 0
-31 -37 -38 -41 -60 -61 -64 -106 -109 -113 0
-31 -37 -38 -42 -60 -61 -65 -106 -110 -114 0
-31 -37 -39 -40 -60 -62 -63 -107 -108 -115 0
-31 -37 -39 -41 -60 -62 -64 -107 -109 -116 0
-31 -37 -39 -42 -60 -62 -65 -107 -110 -117 0
-31 -37 -40 -41 -60 -63 -64 -108 -109 -118 0
-31 -37 -40 -42 -60 -63 -65 -108 -110 -119 0
-31 -37 -41 -42 -60 -64 -65 -109 -110 -120 0
-31 -38 -39 -40 -61 -62 -63 -111 -112 -115 0
-31 -38 -39 -41 -61 -62 -64 -111 -113 -116 0
-31 -38 -39 -42 -61 -62 -65 -111 -114 -117 0
-31 -38 -40 -41 -61 -63 -64 -112 -113 -118 0
-31 -38 -40 -42 -61 -63 -65 -112 -114 -119 0
-31 -38 -41 -42 -61 -64 -65 -113 -114 -120 0
-31 -39 -40 -41 -62 -63 -64 -115 -116 -118 0
-31 -39 -40 -42 -62 -63 -65 -115 -117 -119 0
-31 -39 -41 -42 -62 -64 -65 -116 -117 -120 0
-31 -40 -41 -42 -63 -64 -65 -118 -119 -120 0
-32 -33 -34 -35 -66 -67 -68 -76 -77 -85 0
-32 -33 -34 -36 -66 -67 -69 -76 -78 -86 0
-32 -33 -34 -37 -66 -67 -70 -76 -79 -87 0
-32 -33 -34 -38 -66 -67 -71 -76 -80 -88 0
-32 -33 -34 -39 -66 -67 -72 -76 -81 -89 0
-32 -33 -34 -40 -66 -67 -73 -76 -82 -90 0
-32 -33 -34 -41 -66 -67 -74 -76 -83 -91 0
-32 -33 -34 -42 -66 -67 -75 -76 -84 -92 0
-32 -33 -35 -36 -66 -68 -69 -77 -78 -93 0
-32 -33 -35 -37 -66 -68 -70 -77 -79 -94 0
-32 -33 -35 -38 -66 -68 -71 -77 -80 -95 0
-32 -33 -35 -39 -66 -68 -72 -77 -81 -96 0
-32 -33 -35 -40 -66 -68 -73 -77 -82 -97 0
-32 -33 -35 -41 -66 -68 -74 -77 -83 -98 0
-32 -33 -35 -42 -66 -68 -75 -77 -84 -99 0
-32 -33 -36 -37 -66 -69 -70 -78 -79 -100 0
-32 -33 -36 -38 -66 -69 -71 -78 -80 -101 0
-32 -33 -36 -39 -66 -69 -72 -78 -81 -102 0
-32 -33 -36 -40 -66 -69 -73 -78 -82 -103 0
-32 -33 -36 -41 -66 -69 -74 -78 -83 -104 0
-32 -33 -36 -42 -66 -69 -75 -78 -84 -105 0
-32 -33 -37 -38 -66 -70 -71 -79 -80 -106 0
-32 -33 -37 -39 -66 -70 -72 -79 -81 -107 0
-32 -33 -37 -40 -66 -70 -73 -79 -82 -108 0
-32 -33 -37 -41 -66 -70 -74 -79 -83 -109 0
-32 -33 -37 -42 -66 -70 -75 -79 -84 -110 0
-32 -33 -38 -39 -66 -71 -72 -80 -81 -111 0
-32 -33 -38 -40 -66 -71 -73 -80 -82 -112 0
-32 -33 -38 -41 -66 -71 -74 -80 -83 -113 0
-32 -33 -38 -42 -66 -71 -75 -80 -84 -114 0
-32 -33 -39 -40 -66 -72 -73 -81 -82 -115 0
-32 -33 -39 -41 -66 -72 -74 -81 -83 -116 0
-32 -33 -39 -42 -66 -72 -75 -81 -84 -117 0
-32 -33 -40 -41 -66 -73 -74 -82 -83 -118 0
-32 -33 -40 -42 -66 -73 -75 -82 -84 -119 0
-32 -33 -41 -42 -66 -74 -75 -83 -84 -120 0
-32 -34 -35 -36 -67 -68 -69 -85 -86 -93 0
-32 -34 -35 -37 -67 -68 -70 -85 -87 -94 0
-32 -34 -35 -38 -67 -68 -71 -85 -88 -95 0
-32 -34 -35 -39 -67 -68 -72 -85 -89 -96 0
-32 -34 -35 -40 -67 -68 -73 -85 -90 -97 0
-32 -34 -35 -41 -67 -68 -74 -85 -91 -98 0
-32 -34 -35 -42 -67 -68 -75 -85 -92 -99 0
-32 -34 -36 -37 -67 -69 -70 -86 -87 -100 0
-32 -34 -36 -38 -67 -69 -71 -86 -88 -101 0
-32 -34 -36 -39 -67 -69 -72 -86 -89 -102 0
-32 -34 -36 -40 -67 -69 -73 -86 -90 -103 0
-32 -34 -36 -41 -67 -69 -74 -86 -91 -104 0
-32 -34 -36 -42 -67 -69 -75 -86 -92 -105 0
-32 -34 -37 -38 -67 -70 -71 -87 -88 -106 0
-32 -34 -37 -39 -67 -70 -72 -87 -89 -107 0
-32 -34 -37 -40 -67 -70 -73 -87 -90 -108 0
-32 -34 -37 -41 -67 -70 -74 -87 -91 -109 0
-32 -34 -37 -42 -67 -70 -75 -87 -92 -110 0
-32 -34 -38 -39 -67 -71 -72 -88 -89 -111 0
-32 -34 -38 -40 -67 -71 -73 -88 -90 -112 0
-32 -34 -38 -41 -67 -71 -74 -88 -91 -113 0
-32 -34 -38 -42 -67 -71 -75 -88 -92 -114 0
-32 -34 -39 -40 -67 -72 -73 -89 -90 -115 0
-32 -34 -39 -41 -67 -72 -74 -89 -91 -116 0
-32 -34 -39 -42 -67 -72 -75 -89 -92 -117 0
-32 -34 -40 -41 -67 -73 -74 -90 -91 -118 0
-32 -34 -40 -42 -67 -73 -75 -90 -92 -119 0
-32 -34 -41 -42 -67 -74 -75 -91 -92 -120 0
-32 -35 -36 -37 -68 -69 -70 -93 -94 -100 0
-32 -35 -36 -38 -68 -69 -71 -93 -95 -101 0
-32 -35 -36 -39 -68 -69 -72 -93 -96 -102 0
-32 -35 -36 -40 -68 -69 -73 -93 -97 -103 0
-32 -35 -36 -41 -68 -69 -74 -93 -98 -104 0
-32 -35 -36 -42 -68 -69 -75 -93 -99 -105 0
-32 -35 -37 -38 -68 -70 -71 -94 -95 -106 0
-32 -35 -37 -39 -68 -70 -72 -94 -96 -107 0
-32 -35 -37 -40 -68 -70 -73 -94 -97 -108 0
-32 -35 -37 -41 -68 -70 -74 -94 -98 -109 0
-32 -35 -37 -42 -68 -70 -75 -94 -99 -110 0
-32 -35 -38 -39 -68 -71 -72 -95 -96 -111 0
-32 -35 -38 -40 -68 -71 -73 -95 -97 -112 0
-32 -35 -38 -41 -68 -71 -74 -95 -98 -113 0
-32 -35 -38 -42 -68 -71 -75 -95 -99 -114 0
-32 -35 -39 -40 -68 -72 -73 -96 -97 -115 0
-32 -35 -39 -41 -68 -72 -74 -96 -98 -116 0
-32 -35 -39 -42 -68 -72 -75 -96 -99 -117 0
-32 -35 -40 -41 -68 -73 -74 -97 -98 -118 0
-32 -35 -40 -42 -68 -73 -75 -97 -99 -119 0
-32 -35 -41 -42 -68 -74 -75 -98 -99 -120 0
-32 -36 -37 -38 -69 -70 -71 -100 -101 -106 0
-32 -36 -37 -39 -69 -70 -72 -100 -102 -107 0
-32 -36 -37 -40 -69 -70 -73 -100 -103 -108 0
-32 -36 -37 -41 -69 -70 -74 -100 -104 -109 0
-32 -36 -37 -42 -69 -70 -75 -100 -105 -110 0
-32 -36 -38 -39 -69 -71 -72 -101 -102 -111 0
-32 -36 -38 -40 -69 -71 -73 -101 -103 -112 0
-32 -36 -38 -41 -69 -71 -74 -101 -104 -113 0
-32 -36 -38 -42 -69 -71 -75 -101 -105 -114 0
-32 -36 -39 -40 -69 -72 -73 -102 -103 -115 0
-32 -36 -39 -41 -69 -72 -74 -102 -104 -116 0
-32 -36 -39 -42 -69 -72 -75 -102 -105 -117 0
-32 -36 -40 -41 -69 -73 -74 -103 -104 -118 0
-32 -36 -40 -42 -69 -73 -75 -103 -105 -119 0
-32 -36 -41 -42 -69 -74 -75 -104 -105 -120 0
-32 -37 -38 -39 -70 -71 -72 -106 -107 -111 0
-32 -37 -38 -40 -70 -71 -73 -106 -108 -112 0
-32 -37 -38 -41 -70 -71 -74 -106 -109 -113 0
-32 -37 -38 -42 -70 -71 -75 -106 -110 -114 0
-32 -37 -39 -40 -70 -72 -73 -107 -108 -115 0
-32 -37 -39 -41 -70 -72 -74 -107 -109 -116 0
-32 -37 -39 -42 -70 -72 -75 -107 -110 -117 0
-32 -37 -40 -41 -70 -73 -74 -108 -109 -118 0
-32 -37 -40 -42 -70 -73 -75 -108 -110 -119 0
-32 -37 -41 -42 -70 -74 -75 -109 -110 -120 0
-32 -38 -39 -40 -71 -72 -73 -111 -112 -115 0
-32 -38 -39 -41 -71 -72 -74 -111 -113 -116 0
-32 -38 -39 -42 -71 -72 -75 -111 -114 -117 0
-32 -38 -40 -41 -71 -73 -74 -112 -113 -118 0
-32 -38 -40 -42 -71 -73 -75 -112 -114 -119 0
-32 -38 -41 -42 -71 -74 -75 -113 -114 -120 0
-32 -39 -40 -41 -72 -73 -74 -115 -116 -118 0
-32 -39 -40 -42 -72 -73 -75 -115 -117 -119 0
-32 -39 -41 -42 -72 -74 -75 -116 -117 -120 0
-32 -40 -41 -42 -73 -74 -75 -118 -119 -120 0
-33 -34 -35 -36 -76 -77 -78 -85 -86 -93 0
-33 -34 -35 -37 -76 -77 -79 -85 -87 -94 0
-33 -34 -35 -38 -76 -77 -80 -85 -88 -95 0
-33 -34 -35 -39 -76 -77 -81 -85 -89 -96 0
-33 -34 -35 -40 -76 -77 -82 -85 -90 -97 0
-33 -34 -35 -41 -76 -77 -83 -85 -91 -98 0
-33 -34 -35 -42 -76 -77 -84 -85 -92 -99 0
-33 -34 -36 -37 -76 -78 -79 -86 -87 -100 0
-33 -34 -36 -38 -76 -78 -80 -86 -88 -101 0
-33 -34 -36 -39 -76 -78 -81 -86 -89 -102 0
-33 -34 -36 -40 -76 -78 -82 -86 -90 -103 0
-33 -34 -36 -41 -76 -78 -83 -86 -91 -104 0
-33 -34 -36 -42 -76 -78 -84 -86 -92 -105 0
-33 -34 -37 -38 -76 -79 -80 -87 -88 -106 0
-33 -34 -37 -39 -76 -79 -81 -87 -89 -107 0
-33 -34 -37 -40 -76 -79 -82 -87 -90 -108 0
-33 -34 -37 -41 -76 -79 -83 -87 -91 -109 0
-33 -34 -37 -42 -76 -79 -84 -87 -92 -110 0
-33 -34 -38 -39 -76 -80 -81 -88 -89 -111 0
-33 -34 -38 -40 -76 -80 -82 -88 -90 -112 0
-33 -34 -38 -41 -76 -80 -83 -88 -91 -113 0
-33 -34 -38 -42 -76 -80 -84 -88 -92 -114 0
-33 -34 -39 -40 -76 -81 -82 -89 -90 -115 0
-33 -34 -39 -41 -76 -81 -83 -89 -91 -116 0
-33 -34 -39 -42 -76 -81 -84 -89 -92 -117 0
-33 -34 -40 -41 -76 -82 -83 -90 -91 -118 0
-33 -34 -40 -42 -76 -82 -84 -90 -92 -119 0
-33 -34 -41 -42 -76 -83 -84 -91 -92 -120 0
-33 -35 -36 -37 -77 -78 -79 -93 -94 -100 0
-33 -35 -36 -38 -77 -78 -80 -93 -95 -101 0
-33 -35 -36 -39 -77 -78 -81 -93 -96 -102 0
-33 -35 -36 -40 -77 -78 -82 -93 -97 -103 0
-33 -35 -36 -41 -77 -78 -83 -93 -98 -104 0
-33 -35 -36 -42 -77 -78 -84 -93 -99 -105 0
-33 -35 -37 -38 -77 -79 -80 -94 -95 -106 0
-33 -35 -37 -39 -77 -79 -81 -94 -96 -107 0
-33 -35 -37 -40 -77 -79 -82 -94 -97 -108 0
-33 -35 -37 -41 -77 -79 -83 -94 -98 -109 0
-33 -35 -37 -42 -77 -79 -84 -94 -99 -110 0
-33 -35 -38 -39 -77 -80 -81 -95 -96 -111 0
-33 -35 -38 -40 -77 -80 -82 -95 -97 -112 0
-33 -35 -38 -41 -77 -80 -83 -95 -98 -113 0
-33 -35 -38 -42 -77 -80 -84 -95 -99 -114 0
-33 -35 -39 -40 -77 -81 -82 -96 -97 -115 0
-33 -35 -39 -41 -77 -81 -83 -96 -98 -116 0
-33 -35 -39 -42 -77 -81 -84 -96 -99 -117 0
-33 -35 -40 -41 -77 -82 -83 -97 -98 -118 0
-33 -35 -40 -42 -77 -82 -84 -97 -99 -119 0
-33 -35 -41 -42 -77 -83 -84 -98 -99 -120 0
-33 -36 -37 -38 -78 -79 -80 -100 -101 -106 0
-33 -36 -37 -39 -78 -79 -81 -100 -102 -107 0
-33 -36 -37 -40 -78 -79 -82 -100 -103 -108 0
-33 -36 -37 -41 -78 -79 -83 -100 -104 -109 0
-33 -36 -37 -42 -78 -79 -84 -100 -105 -110 0
-33 -36 -38 -39 -78 -80 -81 -101 -102 -111 0
-33 -36 -38 -40 -78 -80 -82 -101 -103 -112 0
-33 -36 -38 -41 -78 -80 -83 -101 -104 -113 0
-33 -36 -38 -42 -78 -80 -84 -101 -105 -114 0
-33 -36 -39 -40 -78 -81 -82 -102 -103 -115 0
-33 -36 -39 -41 -78 -81 -83 -102 -104 -116 0
-33 -36 -39 -42 -78 -81 -84 -102 -105 -117 0
-33 -36 -40 -41 -78 -82 -83 -103 -104 -118 0
-33 -36 -40 -42 -78 -82 -84 -103 -105 -119 0
-33 -36 -41 -42 -78 -83 -84 -104 -105 -120 0
-33 -37 -38 -39 -79 -80 -81 -106 -107 -111 0
-33 -37 -38 -40 -79 -80 -82 -106 -108 -112 0
-33 -37 -38 -41 -79 -80 -83 -106 -109 -113 0
-33 -37 -38 -42 -79 -80 -84 -106 -110 -114 0
-33 -37 -39 -40 -79 -81 -82 -107 -108 -115 0
-33 -37 -39 -41 -79 -81 -83 -107 -109 -116 0
-33 -37 -39 -42 -79 -81 -84 -107 -110 -117 0
-33 -37 -40 -41 -79 -82 -83 -108 -109 -118 0
-33 -37 -40 -42 -79 -82 -84 -108 -110 -119 0
-33 -37 -41 -42 -79 -83 -84 -109 -110 -120 0
-33 -38 -39 -40 -80 -81 -82 -111 -112 -115 0
-33 -38 -39 -41 -80 -81 -83 -111 -113 -116 0
-33 -38 -39 -42 -80 -81 -84 -111 -114 -117 0
-33 -38 -40 -41 -80 -82 -83 -112 -113 -118 0
-33 -38 -40 -42 -80 -82 -84 -112 -114 -119 0
-33 -38 -41 -42 -80 -83 -84 -113 -114 -120 0
-33 -39 -40 -41 -81 -82 -83 -115 -116 -118 0
-33 -39 -40 -42 -81 -82 -84 -115 -117 -119 0
-33 -39 -41 -42 -81 -83 -84 -116 -117 -120 0
-33 -40 -41 -42 -82 -83 -84 -118 -119 -120 0
-34 -35 -36 -37 -85 -86 -87 -93 -94 -100 0
-34 -35 -36 -38 -85 -86 -88 -93 -95 -101 0
-34 -35 -36 -39 -85 -86 -89 -93 -96 -102 0
-34 -35 -36 -40 -85 -86 -90 -93 -97 -103 0
-34 -35 -36 -41 -85 -86 -91 -93 -98 -104 0
-34 -35 -36 -42 -85 -86 -92 -93 -99 -105 0
-34 -35 -37 -38 -85 -87 -88 -94 -95 -106 0
-34 -35 -37 -39 -85 -87 -89 -94 -96 -107 0
-34 -35 -37 -40 -85 -87 -90 -94 -97 -108 0
-34 -35 -37 -41 -85 -87 -91 -94 -98 -109 0
-34 -35 -37 -42 -85 -87 -92 -94 -99 -110 0
-34 -35 -38 -39 -85 -88 -89 -95 -96 -111 0
-34 -35 -38 -40 -85 -88 -90 -95 -97 -112 0
-34 -35 -38 -41 -85 -88 -91 -95 -98 -113 0
-34 -35 -38 -42 -85 -88 -92 -95 -99 -114 0
-34 -35 -39 -40 -85 -89 -90 -96 -97 -115 0
-34 -35 -39 -41 -85 -89 -91 -96 -98 -116 0
-34 -35 -39 -42 -85 -89 -92 -96 -99 -117 0
-34 -35 -40 -41 -85 -90 -91 -97 -98 -118 0
-34 -35 -40 -42 -85 -90 -92 -97 -99 -119 0
-34 -35 -41 -42 -85 -91 -92 -98 -99 -120 0
-34 -36 -37 -38 -86 -87 -88 -100 -101 -106 0
-34 -36 -37 -39 -86 -87 -89 -100 -102 -107 0
-34 -36 -37 -40 -86 -87 -90 -100 -103 -108 0
-34 -36 -37 -41 -86 -87 -91 -100 -104 -109 0
-34 -36 -37 -42 -86 -87 -92 -100 -105 -110 0
-34 -36 -38 -39 -86 -88 -89 -101 -102 -111 0
-34 -36 -38 -40 -86 -88 -90 -101 -103 -112 0
-34 -36 -38 -41 -86 -88 -91 -101 -104 -113 0
-34 -36 -38 -42 -86 -88 -92 -101 -105 -114 0
-34 -36 -39 -40 -86 -89 -90 -102 -103 -115 0
-34 -36 -39 -41 -86 -89 -91 -102 -104 -116 0
-34 -36 -39 -42 -86 -89 -92 -102 -105 -117 0
-34 -36 -40 -41 -86 -90 -91 -103 -104 -118 0
-34 -36 -40 -42 -86 -90 -92 -103 -105 -119 0
-34 -36 -41 -42 -86 -91 -92 -104 -105 -120 0
-34 -37 -38 -39 -87 -88 -89 -106 -107 -111 0
-34 -37 -38 -40 -87 -88 -90 -106 -108 -112 0
-34 -37 -38 -41 -87 -88 -91 -106 -109 -113 0
-34 -37 -38 -42 -87 -88 -92 -106 -110 -114 0
-34 -37 -39 -40 -87 -89 -90 -107 -108 -115 0
-34 -37 -39 -41 -87 -89 -91 -107 -109 -116 0
-34 -37 -39 -42 -87 -89 -92 -107 -110 -117 0
-34 -37 -40 -41 -87 -90 -91 -108 -109 -118 0
-34 -37 -40 -42 -87 -90 -92 -108 -110 -119 0
-34 -37 -41 -42 -87 -91 -92 -109 -110 -120 0
-34 -38 -39 -40 -88 -89 -90 -111 -112 -115 0
-34 -38 -39 -41 -88 -89 -91 -111 -113 -116 0
-34 -38 -39 -42 -88 -89 -92 -111 -114 -117 0
-34 -38 -40 -41 -88 -90 -91 -112 -113 -118 0
-34 -38 -40 -42 -88 -90 -92 -112 -114 -119 0
-34 -38 -41 -42 -88 -91 -92 -113 -114 -120 0
-34 -39 -40 -41 -89 -90 -91 -115 -116 -118 0
-34 -39 -40 -42 -89 -90 -92 -115 -117 -119 0
-34 -39 -41 -42 -89 -91 -92 -116 -117 -120 0
-34 -40 -41 -42 -90 -91 -92 -118 -119 -120 0
-35 -36 -37 -38 -93 -94 -95 -100 -101 -106 0
-35 -36 -37 -39 -93 -94 -96 -100 -102 -107 0
-35 -36 -37 -40 -93 -94 -97 -100 -103 -108 0
-35 -36 -37 -41 -93 -94 -98 -100 -104 -109 0
-35 -36 -37 -42 -93 -94 -99 -100 -105 -110 0
-35 -36 -38 -39 -93 -95 -96 -101 -102 -111 0
-35 -36 -38 -40 -93 -95 -97 -101 -103 -112 0
-35 -36 -38 -41 -93 -95 -98 -101 -104 -113 0
-35 -36 -38 -42 -93 -95 -99 -101 -105 -114 0
-35 -36 -39 -40 -93 -96 -97 -102 -103 -115 0
-35 -36 -39 -41 -93 -96 -98 -102 -104 -116 0
-35 -36 -39 -42 -93 -96 -99 -102 -105 -117 0
-35 -36 -40 -41 -93 -97 -98 -103 -104 -118 0
-35 -36 -40 -42 -93 -97 -99 -103 -105 -119 0
-35 -36 -41 -42 -93 -98 -99 -104 -105 -120 0
-35 -37 -38 -39 -94 -95 -96 -106 -107 -111 0
-35 -37 -38 -40 -94 -95 -97 -106 -108 -112 0
-35 -37 -38 -41 -94 -95 -98 -106 -109 -113 0
-35 -37 -38 -42 -94 -95 -99 -106 -110 -114 0
-35 -37 -39 -40 -94 -96 -97 -107 -108 -115 0
-35 -37 -39 -41 -94 -96 -98 -107 -109 -116 0
-35 -37 -39 -42 -94 -96 -99 -107 -110 -117 0
-35 -37 -40 -41 -94 -97 -98 -108 -109 -118 0
-35 -37 -40 -42 -94 -97 -99 -108 -110 -119 0
-35 -37 -41 -42 -94 -98 -99 -109 -110 -120 0
-35 -38 -39 -40 -95 -96 -97 -111 -112 -115 0
-35 -38 -39 -41 -95 -96 -98 -111 -113 -116 0
-35 -38 -39 -42 -95 -96 -99 -111 -114 -117 0
-35 -38 -40 -41 -95 -97 -98 -112 -113 -118 0
-35 -38 -40 -42 -95 -97 -99 -112 -114 -119 0
-35 -38 -41 -42 -95 -98 -99 -113 -114 -120 0
-35 -39 -40 -41 -96 -97 -98 -115 -116 -118 0
-35 -39 -40 -42 -96 -97 -99 -115 -117 -119 0
-35 -39 -41 -42 -96 -98 -99 -116 -117 -120 0
-35 -40 -41 -42 -97 -98 -99 -118 -119 -120 0
-36 -37 -38 -39 -100 -101 -102 -106 -107 -111 0
-36 -37 -38 -40 -100 -101 -103 -106 -108 -112 0
-36 -37 -38 -41 -100 -101 -104 -106 -109 -113 0
-36 -37 -38 -42 -100 -101 -105 -106 -110 -114 0
-36 -37 -39 -40 -100 -102 -103 -107 -108 -115 0
-36 -37 -39 -41 -100 -102 -104 -107 -109 -116 0
-36 -37 -39 -42 -100 -102 -105 -107 -110 -117 0
-36 -37 -40 -41 -100 -103 -104 -108 -109 -118 0
-36 -37 -40 -42 -100 -103 -105 -108 -110 -119 0
-36 -37 -41 -42 -100 -104 -105 -109 -110 -120 0
-36 -38 -39 -40 -101 -102 -103 -111 -112 -115 0
-36 -38 -39 -41 -101 -102 -104 -111 -113 -116 0
-36 -38 -39 -42 -101 -102 -105 -111 -114 -117 0
-36 -38 -40 -41 -101 -103 -104 -112 -113 -118 0
-36 -38 -40 -42 -101 -103 -105 -112 -114 -119 0
-36 -38 -41 -42 -101 -104 -105 -113 -114 -120 0
-36 -39 -40 -41 -102 -103 -104 -115 -116 -118 0
-36 -39 -40 -42 -102 -103 -105 -115 -117 -119 0
-36 -39 -41 -42 -102 -104 -105 -116 -117 -120 0
-36 -40 -41 -42 -103 -104 -105 -118 -119 -120 0
-37 -38 -39 -40 -106 -107 -108 -111 -112 -115 0
-37 -38 -39 -41 -106 -107 -109 -111 -113 -116 0
-37 -38 -39 -42 -106 -107 -110 -111 -114 -117 0
-37 -38 -40 -41 -106 -108 -109 -112 -113 -118 0
-37 -38 -40 -42 -106 -108 -110 -112 -114 -119 0
-37 -38 -41 -42 -106 -109 -110 -113 -114 -120 0
-37 -39 -40 -41 -107 -108 -109 -115 -116 -118 0
-37 -39 -40 -42 -107 -108 -110 -115 -117 -119 0
-37 -39 -41 -42 -107 -109 -110 -116 -117 -120 0
-37 -40 -41 -42 -108 -109 -110 -118 -119 -120 0
-38 -39 -40 -41 -111 -112 -113 -115 -116 -118 0
-38 -39 -40 -42 -111 -112 -114 -115 -117 -119 0
-38 -39 -41 -42 -111 -113 -114 -116 -117 -120 0
-38 -40 -41 -42 -112 -113 -114 -118 -119 -120 0
-39 -40 -41 -42 -115 -116 -117 -118 -119 -120 0
-43 -44 -45 -46 -55 -56 -57 -66 -67 -76 0
-43 -44 -45 -47 -55 -56 -58 -66 -68 -77 0
-43 -44 -45 -48 -55 -56 -59 -66 -69 -78 0
-43 -44 -45 -49 -55 -56 -60 -66 -70 -79 0
-43 -44 -45 -50 -55 -56 -61 -66 -71 -80 0
-43 -44 -45 -51 -55 -56 -62 -66 -72 -81 0
-43 -44 -45 -52 -55 -56 -63 -66 -73 -82 0
-43 -44 -45 -53 -55 -56 -64 -66 -74 -83 0
-43 -44 -45 -54 -55 -56 -65 -66 -75 -84 0
-43 -44 -46 -47 -55 -57 -58 -67 -68 -85 0
-43 -44 -46 -48 -55 -57 -59 -67 -69 -86 0
-43 -44 -46 -49 -55 -57 -60 -67 -70 -87 0
-43 -44 -46 -50 -55 -57 -61 -67 -71 -88 0
-43 -44 -46 -51 -55 -57 -62 -67 -72 -89 0
-43 -44 -46 -52 -55 -57 -63 -67 -73 -90 0
-43 -44 -46 -53 -55 -57 -64 -67 -74 -91 0
-43 -44 -46 -54 -55 -57 -65 -67 -75 -92 0
-43 -44 -47 -48 -55 -58 -59 -68 -69 -93 0
-43 -44 -47 -49 -55 -58 -60 -68 -70 -94 0
-43 -44 -47 -50 -55 -58 -61 -68 -71 -95 0
-43 -44 -47 -51 -55 -58 -62 -68 -72 -96 0
-43 -44 -47 -52 -55 -58 -63 -68 -73 -97 0
-43 -44 -47 -53 -55 -58 -64 -68 -74 -98 0
-43 -44 -47 -54 -55 -58 -65 -68 -75 -99 0
-43 -44 -48 -49 -55 -59 -60 -69 -70 -100 0
-43 -44 -48 -50 -55 -59 -61 -69 -71 -101 0
-43 -44 -48 -51 -55 -59 -62 -69 -72 -102 0
-43 -44 -48 -52 -55 -59 -63 -69 -73 -103 0
-43 -44 -48 -53 -55 -59 -64 -69 -74 -104 0
-43 -44 -48 -54 -55 -59 -65 -69 -75 -105 0
-43 -44 -49 -50 -55 -60 -61 -70 -71 -106 0
-43 -44 -49 -51 -55 -60 -62 -70 -72 -107 0
-43 -44 -49 -52 -55 -60 -63 -70 -73 -108 0
-43 -44 -49 -53 -55 -60 -64 -70 -74 -109 0
-43 -44 -49 -54 -55 -60 -65 -70 -75 -110 0
-43 -44 -50 -51 -55 -61 -62 -71 -72 -111 0
-43 -44 -50 -52 -55 -61 -63 -71 -73 -112 0
-43 -44 -50 -53 -55 -61 -64 -71 -74 -113 0
-43 -44 -50 -54 -55 -61 -65 -71 -75 -114 0
-43 -44 -51 -52 -55 -62 -63 -72 -73 -115 0
-43 -44 -51 -53 -55 -62 -64 -72 -74 -116 0
-43 -44 -51 -54 -55 -62 -65 -72 -75 -117 0
-43 -44 -52 -53 -55 -63 -64 -73 -74 -118 0
-43 -44 -52 -54 -55 -63 -65 -73 -75 -119 0
-43 -44 -53 -54 -55 -64 -65 -74 -75 -120 0
-43 -45 -46 -47 -56 -57 -58 -76 -77 -85 0
-43 -45 -46 -48 -56 -57 -59 -76 -78 -86 0
-43 -45 -46 -49 -56 -57 -60 -76 -79 -87 0
-43 -45 -46 -50 -56 -57 -61 -76 -80 -88 0
-43 -45 -46 -51 -56 -57 -62 -76 -81 -89 0
-43 -45 -46 -52 -56 -57 -63 -76 -82 -90 0
-43 -45 -46 -53 -56 -57 -64 -76 -83 -91 0
-43 -45 -46 -54 -56 -57 -65 -76 -84 -92 0
-43 -45 -47 -48 -56 -58 -59 -77 -78 -93 0
-43 -45 -47 -49 -56 -58 -60 -77 -79 -94 0
-43 -45 -47 -50 -56 -58 -61 -77 -80 -95 0
-43 -45 -47 -51 -56 -58 -62 -77 -81 -96 0
-43 -45 -47 -52 -56 -58 -63 -77 -82 -97 0
-43 -45 -47 -53 -56 -58 -64 -77 -83 -98 0
-43 -45 -47 -54 -56 -58 -65 -77 -84 -99 0
-43 -45 -48 -49 -56 -59 -60 -78 -79 -100 0
-43 -45 -48 -50 -56 -59 -61 -78 -80 -101 0
-43 -45 -48 -51 -56 -59 -62 -78 -81 -102 0
-43 -45 -48 -52 -56 -59 -63 -78 -82 -103 0
-43 -45 -48 -53 -56 -59 -64 -78 -83 -104 0
-43 -45 -48 -54 -56 -59 -65 -78 -84 -105 0
-43 -45 -49 -50 -56 -60 -61 -79 -80 -106 0
-43 -45 -49 -51 -56 -60 -62 -79 -81 -107 0
-43 -45 -49 -52 -56 -60 -63 -79 -82 -108 0
-43 -45 -49 -53 -56 -60 -64 -79 -83 -109 0
-43 -45 -49 -54 -56 -60 -65 -79 -84 -110 0
-43 -45 -50 -51 -56 -61 -62 -80 -81 -111 0
-43 -45 -50 -52 -56 -61 -63 -80 -82 -112 0
-43 -45 -50 -53 -56 -61 -64 -80 -83 -113 0
-43 -45 -50 -54 -56 -61 -65 -80 -84 -114 0
-43 -45 -51 -52 -56 -62 -63 -81 -82 -115 0
-43 -45 -51 -53 -56 -62 -64 -81 -83 -116 0
-43 -45 -51 -54 -56 -62 -65 -81 -84 -117 0
-43 -45 -52 -53 -56 -63 -64 -82 -83 -118 0
-43 -45 -52 -54 -56 -63 -65 -82 -84 -119 0
-43 -45 -53 -54 -56 -64 -65 -83 -84 -120 0
-43 -46 -47 -48 -57 -58 -59 -85 -86 -93 0
-43 -46 -47 -49 -57 -58 -60 -85 -87 -94 0
-43 -46 -47 -50 -57 -58 -61 -85 -88 -95 0
-43 -46 -47 -51 -57 -58 -62 -85 -89 -96 0
-43 -46 -47 -52 -57 -58 -63 -85 -90 -97 0
-43 -46 -47 -53 -57 -58 -64 -85 -91 -98 0
-43 -46 -47 -54 -57 -58 -65 -85 -92 -99 0
-43 -46 -48 -49 -57 -59 -60 -86 -87 -100 0
-43 -46 -48 -50 -57 -59 -61 -86 -88 -101 0
-43 -46 -48 -51 -57 -59 -62 -86 -89 -102 0
-43 -46 -48 -52 -57 -59 -63 -86 -90 -103 0
-43 -46 -48 -53 -57 -59 -64 -86 -91 -104 0
-43 -46 -48 -54 -57 -59 -65 -86 -92 -105 0
-43 -46 -49 -50 -57 -60 -61 -87 -88 -106 0
-43 -46 -49 -51 -57 -60 -62 -87 -89 -107 0
-43 -46 -49 -52 -57 -60 -63 -87 -90 -108 0
-43 -46 -49 -53 -57 -60 -64 -87 -91 -109 0
-43 -46 -49 -54 -57 -60 -65 -87 -92 -110 0
-43 -46 -50 -51 -57 -61 -62 -88 -89 -111 0
-43 -46 -50 -52 -57 -61 -63 -88 -90 -112 0
-43 -46 -50 -53 -57 -61 -64 -88 -91 -113 0
-43 -46 -50 -54 -57 -61 -65 -88 -92 -114 0
-43 -46 -51 -52 -57 -62 -63 -89 -90 -115 0
-43 -46 -51 -53 -57 -62 -64 -89 -91 -116 0
-43 -46 -51 -54 -57 -62 -65 -89 -92 -117 0
-43 -46 -52 -53 -57 -63 -64 -90 -91 -118 0
-43 -46 -52 -54 -57 -63 -65 -90 -92 -119 0
-43 -46 -53 -54 -57 -64 -65 -91 -92 -120 0
-43 -47 -48 -49 -58 -59 -60 -93 -94 -100 0
-43 -47 -48 -50 -58 -59 -61 -93 -95 -101 0
-43 -47 -48 -51 -58 -59 -62 -93 -96 -102 0
-43 -47 -48 -52 -58 -59 -63 -93 -97 -103 0
-43 -47 -48 -53 -58 -59 -64 -93 -98 -104 0
-43 -47 -48 -54 -58 -59 -65 -93 -99 -105 0
-43 -47 -49 -50 -58 -60 -61 -94 -95 -106 0
-43 -47 -49 -51 -58 -60 -62 -94 -96 -107 0
-43 -47 -49 -52 -58 -60 -63 -94 -97 -108 0
-43 -47 -49 -53 -58 -60 -64 -94 -98 -109 0
-43 -47 -49 -54 -58 -60 -65 -94 -99 -110 0
-43 -47 -50 -51 -58 -61 -62 -95 -96 -111 0
-43 -47 -50 -52 -58 -61 -63 -95 -97 -112 0
-43 -47 -50 -53 -58 -61 -64 -95 -98 -113 0
-43 -47 -50 -54 -58 -61 -65 -95 -99 -114 0
-43 -47 -51 -52 -58 -62 -63 -96 -97 -115 0
-43 -47 -51 -53 -58 -62 -64 -96 -98 -116 0
-43 -47 -51 -54 -58 -62 -65 -96 -99 -117 0
-43 -47 -52 -53 -58 -63 -64 -97 -98 -118 0
-43 -47 -52 -54 -58 -63 -65 -97 -99 -119 0
-43 -47 -53 -54 -58 -64 -65 -98 -99 -120 0
-43 -48 -49 -50 -59 -60 -61 -100 -101 -106 0
-43 -48 -49 -51 -59 -60 -62 -100 -102 -107 0
-43 -48 -49 -52 -59 -60 -63 -100 -103 -108 0
-43 -48 -49 -53 -59 -60 -64 -100 -104 -109 0
-43 -48 -49 -54 -59 -60 -65 -100 -105 -110 0
-43 -48 -50 -51 -59 -61 -62 -101 -102 -111 0
-43 -48 -50 -52 -59 -61 -63 -101 -103 -112 0
-43 -48 -50 -53 -59 -61 -64 -101 -104 -113 0
-43 -48 -50 -54 -59 -61 -65 -101 -105 -114 0
-43 -48 -51 -52 -59 -62 -63 -102 -103 -115 0
-43 -48 -51 -53 -59 -62 -64 -102 -104 -116 0
-43 -48 -51 -54 -59 -62 -65 -102 -105 -117 0
-43 -48 -52 -53 -59 -63 -64 -103 -104 -118 0
-43 -48 -52 -54 -59 -63 -65 -103 -105 -119 0
-43 -48 -53 -54 -59 -64 -65 -104 -105 -120 0
-43 -49 -50 -51 -60 -61 -62 -106 -107 -111 0
-43 -49 -50 -52 -60 -61 -63 -106 -108 -112 0
-43 -49 -50 -53 -60 -61 -64 -106 -109 -113 0
-43 -49 -50 -54 -60 -61 -65 -106 -110 -114 0
-43 -49 -51 -52 -60 -62 -63 -107 -108 -115 0
-43 -49 -51 -53 -60 -62 -64 -107 -109 -116 0
-43 -49 -51 -54 -60 -62 -65 -107 -110 -117 0
-43 -49 -52 -53 -60 -63 -64 -108 -109 -118 0
-43 -49 -52 -54 -60 -63 -65 -108 -110 -119 0
-43 -49 -53 -54 -60 -64 -65 -109 -110 -120 0
-43 -50 -51 -52 -61 -62 -63 -111 -112 -115 0
-43 -50 -51 -53 -61 -62 -64 -111 -113 -116 0
-43 -50 -51 -54 -61 -62 -65 -111 -114 -117 0
-43 -50 -52 -53 -61 -63 -64 -112 -113 -118 0
-43 -50 -52 -54 -61 -63 -65 -112 -114 -119 0
-43 -50 -53 -54 -61 -64 -65 -113 -114 -120 0
-43 -51 -52 -53 -62 -63 -64 -115 -116 -118 0
-43 -51 -52 -54 -62 -63 -65 -115 -117 -119 0
-43 -51 -53 -54 -62 -64 -65 -116 -117 -120 0
-43 -52 -53 -54 -63 -64 -65 -118 -119 -120 0
-44 -45 -46 -47 -66 -67 -68 -76 -77 -85 0
-44 -45 -46 -48 -66 -67 -69 -76 -78 -86 0
-44 -45 -46 -49 -66 -67 -70 -76 -79 -87 0
-44 -45 -46 -50 -66 -67 -71 -76 -80 -88 0
-44 -45 -46 -51 -66 -67 -72 -76 -81 -89 0
-44 -45 -46 -52 -66 -67 -73 -76 -82 -90 0
-44 -45 -46 -53 -66 -67 -74 -76 -83 -91 0
-44 -45 -46 -54 -66 -67 -75 -76 -84 -92 0
-44 -45 -47 -48 -66 -68 -69 -77 -78 -93 0
-44 -45 -47 -49 -66 -68 -70 -77 -79 -94 0
-44 -45 -47 -50 -66 -68 -71 -77 -80 -95 0
-44 -45 -47 -51 -66 -68 -72 -77 -81 -96 0
-44 -45 -47 -52 -66 -68 -73 -77 -82 -97 0
-44 -45 -47 -53 -66 -68 -74 -77 -83 -98 0
-44 -45 -47 -54 -66 -68 -75 -77 -84 -99 0
-44 -45 -48 -49 -66 -69 -70 -78 -79 -100 0
-44 -45 -48 -50 -66 -69 -71 -78 -80 -101 0
-44 -45 -48 -51 -66 -69 -72 -78 -81 -102 0
-44 -45 -48 -52 -66 -69 -73 -78 -82 -103 0
-44 -45 -48 -53 -66 -69 -74 -78 -83 -104 0
-44 -45 -48 -54 -66 -69 -75 -78 -84 -105 0
-44 -45 -49 -50 -66 -70 -71 -79 -80 -106 0
-44 -45 -49 -51 -66 -70 -72 -79 -81 -107 0
-44 -45 -49 -52 -66 -70 -73 -79 -82 -108 0
-44 -45 -49 -53 -66 -70 -74 -79 -83 -109 0
-44 -45 -49 -54 -66 -70 -75 -79 -84 -110 0
-44 -45 -50 -51 -66 -71 -72 -80 -81 -111 0
-44 -45 -50 -52 -66 -71 -73 -80 -82 -112 0
-44 -45 -50 -53 -66 -71 -74 -80 -83 -113 0
-44 -45 -50 -54 -66 -71 -75 -80 -84 -114 0
-44 -45 -51 -52 -66 -72 -73 -81 -82 -115 0
-44 -45 -51 -53 -66 -72 -74 -81 -83 -116 0
-44 -45 -51 -54 -66 -72 -75 -81 -84 -117 0
-44 -45 -52 -53 -66 -73 -74 -82 -83 -118 0
-44 -45 -52 -54 -66 -73 -75 -82 -84 -119 0
-44 -45 -53 -54 -66 -74 -75 -83 -84 -120 0
-44 -46 -47 -48 -67 -68 -69 -85 -86 -93 0
-44 -46 -47 -49 -67 -68 -70 -85 -87 -94 0
-44 -46 -47 -50 -67 -68 -71 -85 -88 -95 0
-44 -46 -47 -51 -67 -68 -72 -85 -89 -96 0
-44 -46 -47 -52 -67 -68 -73 -85 -90 -97 0
-44 -46 -47 -53 -67 -68 -74 -85 -91 -98 0
-44 -46 -47 -54 -67 -68 -75 -85 -92 -99 0
-44 -46 -48 -49 -67 -69 -70 -86 -87 -100 0
-44 -46 -48 -50 -67 -69 -71 -86 -88 -101 0
-44 -46 -48 -51 -67 -69 -72 -86 -89 -102 0
-44 -46 -48 -52 -67 -69 -73 -86 -90 -103 0
-44 -46 -48 -53 -67 -69 -74 -86 -91 -104 0
-44 -46 -48 -54 -67 -69 -75 -86 -92 -105 0
-44 -46 -49 -50 -67 -70 -71 -87 -88 -106 0
-44 -46 -49 -51 -67 -70 -72 -87 -89 -107 0
-44 -46 -49 -52 -67 -70 -73 -87 -90 -108 0
-44 -46 -49 -53 -67 -70 -74 -87 -91 -109 0
-44 -46 -49 -54 -67 -70 -75 -87 -92 -110 0
-44 -46 -50 -51 -67 -71 -72 -88 -89 -111 0
-44 -46 -50 -52 -67 -71 -73 -88 -90 -112 0
-44 -46 -50 -53 -67 -71 -74 -88 -91 -113 0
-44 -46 -50 -54 -67 -71 -75 -88 -92 -114 0
-44 -46 -51 -52 -67 -72 -73 -89 -90 -115 0
-44 -46 -51 -53 -67 -72 -74 -89 -91 -116 0
-44 -46 -51 -54 -67 -72 -75 -89 -92 -117 0
-44 -46 -52 -53 -67 -73 -74 -90 -91 -118 0
-44 -46 -52 -54 -67 -73 -75 -90 -92 -119 0
-44 -46 -53 -54 -67 -74 -75 -91 -92 -120 0
-44 -47 -48 -49 -68 -69 -70 -93 -94 -100 0
-44 -47 -48 -50 -68 -69 -71 -93 -95 -101 0
-44 -47 -48 -51 -68 -69 -72 -93 -96 -102 0
-44 -47 -48 -52 -68 -69 -73 -93 -97 -103 0
-44 -47 -48 -53 -68 -69 -74 -93 -98 -104 0
-44 -47 -48 -54 -68 -69 -75 -93 -99 -105 0
-44 -47 -49 -50 -68 -70 -71 -94 -95 -106 0
-44 -47 -49 -51 -68 -70 -72 -94 -96 -107 0
-44 -47 -49 -52 -68 -70 -73 -94 -97 -108 0
-44 -47 -49 -53 -68 -70 -74 -94 -98 -109 0
-44 -47 -49 -54 -68 -70 -75 -94 -99 -110 0
-44 -47 -50 -51 -68 -71 -72 -95 -96 -111 0
-44 -47 -50 -52 -68 -71 -73 -95 -97 -112 0
-44 -47 -50 -53 -68 -71 -74 -95 -98 -113 0
-44 -47 -50 -54 -68 -71 -75 -95 -99 -114 0
-44 -47 -51 -52 -68 -72 -73 -96 -97 -115 0
-44 -47 -51 -53 -68 -72 -74 -96 -98 -116 0
-44 -47 -51 -54 -68 -72 -75 -96 -99 -117 0
-44 -47 -52 -53 -68 -73 -74 -97 -98 -118 0
-44 -47 -52 -54 -68 -73 -75 -97 -99 -119 0
-44 -47 -53 -54 -68 -74 -75 -98 -99 -120 0
-44 -48 -49 -50 -69 -70 -71 -100 -101 -106 0
-44 -48 -49 -51 -69 -70 -72 -100 -102 -107 0
-44 -48 -49 -52 -69 -70 -73 -100 -103 -108 0
-44 -48 -49 -53 -69 -70 -74 -100 -104 -109 0
-44 -48 -49 -54 -69 -70 -75 -100 -105 -110 0
-44 -48 -50 -51 -69 -71 -72 -101 -102 -111 0
-44 -48 -50 -52 -69 -71 -73 -101 -103 -112 0
-44 -48 -50 -53 -69 -71 -74 -101 -104 -113 0
-44 -48 -50 -54 -69 -71 -75 -101 -105 -114 0
-44 -48 -51 -52 -69 -72 -73 -102 -103 -115 0
-44 -48 -51 -53 -69 -72 -74 -102 -104 -116 0
-44 -48 -51 -54 -69 -72 -75 -102 -105 -117 0
-44 -48 -52 -53 -69 -73 -74 -103 -104 -118 0
-44 -48 -52 -54 -69 -73 -75 -103 -105 -119 0
-44 -48 -53 -54 -69 -74 -75 -104 -105 -120 0
-44 -49 -50 -51 -70 -71 -72 -106 -107 -111 0
-44 -49 -50 -52 -70 -71 -73 -106 -108 -112 0
-44 -49 -50 -53 -70 -71 -74 -106 -109 -113 0
-44 -49 -50 -54 -70 -71 -75 -106 -110 -114 0
-44 -49 -51 -52 -70 -72 -73 -107 -108 -115 0
-44 -49 -51 -53 -70 -72 -74 -107 -109 -116 0
-44 -49 -51 -54 -70 -72 -75 -107 -110 -117 0
-44 -49 -52 -53 -70 -73 -74 -108 -109 -118 0
-44 -49 -52 -54 -70 -73 -75 -108 -110 -119 0
-44 -49 -53 -54 -70 -74 -75 -109 -110 -120 0
-44 -50 -51 -52 -71 -72 -73 -111 -112 -115 0
-44 -50 -51 -53 -71 -72 -74 -111 -113 -116 0
-44 -50 -51 -54 -71 -72 -75 -111 -114 -117 0
-44 -50 -52 -53 -71 -73 -74 -112 -113 -118 0
-44 -50 -52 -54 -71 -73 -75 -112 -114 -119 0
-44 -50 -53 -54 -71 -74 -75 -113 -114 -120 0
-44 -51 -52 -53 -72 -73 -74 -115 -116 -118 0
-44 -51 -52 -54 -72 -73 -75 -115 -117 -119 0
-44 -51 -53 -54 -72 -74 -75 -116 -117 -120 0
-44 -52 -53 -54 -73 -74 -75 -118 -119 -120 0
-45 -46 -47 -48 -76 -77 -78 -85 -86 -93 0
-45 -46 -47 -49 -76 -77 -79 -85 -87 -94 0
-45 -46 -47 -50 -76 -77 -80 -85 -88 -95 0
-45 -46 -47 -51 -76 -77 -81 -85 -89 -96 0
-45 -46 -47 -52 -76 -77 -82 -85 -90 -97 0
-45 -46 -47 -53 -76 -77 -83 -85 -91 -98 0
-45 -46 -47 -54 -76 -77 -84 -85 -92 -99 0
-45 -46 -48 -49 -76 -78 -79 -86 -87 -100 0
-45 -46 -48 -50 -76 -78 -80 -86 -88 -101 0
-45 -46 -48 -51 -76 -78 -81 -86 -89 -102 0
-45 -46 -48 -52 -76 -78 -82 -86 -90 -103 0
-45 -46 -48 -53 -76 -78 -83 -86 -91 -104 0
-45 -46 -48 -54 -76 -78 -84 -86 -92 -105 0
-45 -46 -49 -50 -76 -79 -80 -87 -88 -106 0
-45 -46 -49 -51 -76 -79 -81 -87 -89 -107 0
-45 -46 -49 -52 -76 -79 -82 -87 -90 -108 0
-45 -46 -49 -53 -76 -79 -83 -87 -91 -109 0
-45 -46 -49 -54 -76 -79 -84 -87 -92 -110 0
-45 -46 -50 -51 -76 -80 -81 -88 -89 -111 0
-45 -46 -50 -52 -76 -80 -82 -88 -90 -112 0
-45 -46 -50 -53 -76 -80 -83 -88 -91 -113 0
-45 -46 -50 -54 -76 -80 -84 -88 -92 -114 0
-45 -46 -51 -52 -76 -81 -82 -89 -90 -115 0
-45 -46 -51 -53 -76 -81 -83 -89 -91 -116 0
-45 -46 -51 -54 -76 -81 -84 -89 -92 -117 0
-45 -46 -52 -53 -76 -82 -83 -90 -91 -118 0
-45 -46 -52 -54 -76 -82 -84 -90 -92 -119 0
-45 -46 -53 -54 -76 -83 -84 -91 -92 -120 0
-45 -47 -48 -49 -77 -78 -79 -93 -94 -100 0
-45 -47 -48 -50 -77 -78 -80 -93 -95 -101 0
-45 -47 -48 -51 -77 -78 -81 -93 -96 -102 0
-45 -47 -48 -52 -77 -78 -82 -93 -97 -103 0
-45 -47 -48 -53 -77 -78 -83 -93 -98 -104 0
-45 -47 -48 -54 -77 -78 -84 -93 -99 -105 0
-45 -47 -49 -50 -77 -79 -80 -94 -95 -106 0
-45 -47 -49 -51 -77 -79 -81 -94 -96 -107 0
-45 -47 -49 -52 -77 -79 -82 -94 -97 -108 0
-45 -47 -49 -53 -77 -79 -83 -94 -98 -109 0
-45 -47 -49 -54 -77 -79 -84 -94 -99 -110 0
-45 -47 -50 -51 -77 -80 -81 -95 -96 -111 0
-45 -47 -50 -52 -77 -80 -82 -95 -97 -112 0
-45 -47 -50 -53 -77 -80 -83 -95 -98 -113 0
-45 -47 -50 -54 -77 -80 -84 -95 -99 -114 0
-45 -47 -51 -52 -77 -81 -82 -96 -97 -115 0
-45 -47 -51 -53 -77 -81 -83 -96 -98 -116 0
-45 -47 -51 -54 -77 -81 -84 -96 -99 -117 0
-45 -47 -52 -53 -77 -82 -83 -97 -98 -118 0
-45 -47 -52 -54 -77 -82 -84 -97 -99 -119 0
-45 -47 -53 -54 -77 -83 -84 -98 -99 -120 0
-45 -48 -49 -50 -78 -79 -80 -100 -101 -106 0
-45 -48 -49 -51 -78 -79 -81 -100 -102 -107 0
-45 -48 -49 -52 -78 -79 -82 -100 -103 -108 0
-45 -48 -49 -53 -78 -79 -83 -100 -104 -109 0
-45 -48 -49 -54 -78 -79 -84 -100 -105 -110 0
-45 -48 -50 -51 -78 -80 -81 -101 -102 -111 0
-45 -48 -50 -52 -78 -80 -82 -101 -103 -112 0
-45 -48 -50 -53 -78 -80 -83 -101 -104 -113 0
-45 -48 -50 -54 -78 -80 -84 -101 -105 -114 0
-45 -48 -51 -52 -78 -81 -82 -102 -103 -115 0
-45 -48 -51 -53 -78 -81 -83 -102 -104 -116 0
-45 -48 -51 -54 -78 -81 -84 -102 -105 -117 0
-45 -48 -52 -53 -78 -82 -83 -103 -104 -118 0
-45 -48 -52 -54 -78 -82 -84 -103 -105 -119 0
-45 -48 -53 -54 -78 -83 -84 -104 -105 -120 0
-45 -49 -50 -51 -79 -80 -81 -106 -107 -111 0
-45 -49 -50 -52 -79 -80 -82 -106 -108 -112 0
-45 -49 -50 -53 -79 -80 -83 -106 -109 -113 0
-45 -49 -50 -54 -79 -80 -84 -106 -110 -114 0
-45 -49 -51 -52 -79 -81 -82 -107 -108 -115 0
-45 -49 -51 -53 -79 -81 -83 -107 -109 -116 0
-45 -49 -51 -54 -79 -81 -84 -107 -110 -117 0
-45 -49 -52 -53 -79 -82 -83 -108 -109 -118 0
-45 -49 -52 -54 -79 -82 -84 -108 -110 -119 0
-45 -49 -53 -54 -79 -83 -84 -109 -110 -120 0
-45 -50 -51 -52 -80 -81 -82 -111 -112 -115 0
-45 -50 -51 -53 -80 -81 -83 -111 -113 -116 0
-45 -50 -51 -54 -80 -81 -84 -111 -114 -117 0
-45 -50 -52 -53 -80 -82 -83 -112 -113 -118 0
-45 -50 -52 -54 -80 -82 -84 -112 -114 -119 0
-45 -50 -53 -54 -80 -83 -84 -113 -114 -120 0
-45 -51 -52 -53 -81 -82 -83 -115 -116 -118 0
-45 -51 -52 -54 -81 -82 -84 -115 -117 -119 0
-45 -51 -53 -54 -81 -83 -84 -116 -117 -120 0
-45 -52 -53 -54 -82 -83 -84 -118 -119 -120 0
-46 -47 -48 -49 -85 -86 -87 -93 -94 -100 0
-46 -47 -48 -50 -85 -86 -88 -93 -95 -101 0
-46 -47 -48 -51 -85 -86 -89 -93 -96 -102 0
-46 -47 -48 -52 -85 -86 -90 -93 -97 -103 0
-46 -47 -48 -53 -85 -86 -91 -93 -98 -104 0
-46 -47 -48 -54 -85 -86 -92 -93 -99 -105 0
-46 -47 -49 -50 -85 -87 -88 -94 -95 -106 0
-46 -47 -49 -51 -85 -87 -89 -94 -96 -107 0
-46 -47 -49 -52 -85 -87 -90 -94 -97 -108 0
-46 -47 -49 -53 -85 -87 -91 -94 -98 -109 0
-46 -47 -49 -54 -85 -87 -92 -94 -99 -110 0
-46 -47 -50 -51 -85 -88 -89 -95 -96 -111 0
-46 -47 -50 -52 -85 -88 -90 -95 -97 -112 0
-46 -47 -50 -53 -85 -88 -91 -95 -98 -113 0
-46 -47 -50 -54 -85 -88 -92 -95 -99 -114 0
-46 -47 -51 -52 -85 -89 -90 -96 -97 -115 0
-46 -47 -51 -53 -85 -89 -91 -96 -98 -116 0
-46 -47 -51 -54 -85 -89 -92 -96 -99 -117 0
-46 -47 -52 -53 -85 -90 -91 -97 -98 -118 0
-46 -47 -52 -54 -85 -90 -92 -97 -99 -119 0
-46 -47 -53 -54 -85 -91 -92 -98 -99 -120 0
-46 -48 -49 -50 -86 -87 -88 -100 -101 -106 0
-46 -48 -49 -51 -86 -87 -89 -100 -102 -107 0
-46 -48 -49 -52 -86 -87 -90 -100 -103 -108 0
-46 -48 -49 -53 -86 -87 -91 -100 -104 -109 0
-46 -48 -49 -54 -86 -87 -92 -100 -105 -110 0
-46 -48 -50 -51 -86 -88 -89 -101 -102 -111 0
-46 -48 -50 -52 -86 -88 -90 -101 -103 -112 0
-46 -48 -50 -53 -86 -88 -91 -101 -104 -113 0
-46 -48 -50 -54 -86 -88 -92 -101 -105 -114 0
-46 -48 -51 -52 -86 -89 -90 -102 -103 -115 0
-46 -48 -51 -53 -86 -89 -91 -102 -104 -116 0
-46 -48 -51 -54 -86 -89 -92 -102 -105 -117 0
-46 -48 -52 -53 -86 -90 -91 -103 -104 -118 0
-46 -48 -52 -54 -86 -90 -92 -103 -105 -119 0
-46 -48 -53 -54 -86 -91 -92 -104 -105 -120 0
-46 -49 -50 -51 -87 -88 -89 -106 -107 -111 0
-46 -49 -50 -52 -87 -88 -90 -106 -108 -112 0
-46 -49 -50 -53 -87 -88 -91 -106 -109 -113 0
-46 -49 -50 -54 -87 -88 -92 -106 -110 -114 0
-46 -49 -51 -52 -87 -89 -90 -107 -108 -115 0
-46 -49 -51 -53 -87 -89 -91 -107 -109 -116 0
-46 -49 -51 -54 -87 -89 -92 -107 -110 -117 0
-46 -49 -52 -53 -87 -90 -91 -108 -109 -118 0
-46 -49 -52 -54 -87 -90 -92 -108 -110 -119 0
-46 -49 -53 -54 -87 -91 -92 -109 -110 -120 0
-46 -50 -51 -52 -88 -89 -90 -111 -112 -115 0
-46 -50 -51 -53 -88 -89 -91 -111 -113 -116 0
-46 -50 -51 -54 -88 -89 -92 -111 -114 -117 0
-46 -50 -52 -53 -88 -90 -91 -112 -113 -118 0
-46 -50 -52 -54 -88 -90 -92 -112 -114 -119 0
-46 -50 -53 -54 -88 -91 -92 -113 -114 -120 0
-46 -51 -52 -53 -89 -90 -91 -115 -116 -118 0
-46 -51 -52 -54 -89 -90 -92 -115 -117 -119 0
-46 -51 -53 -54 -89 -91 -92 -116 -117 -120 0
-46 -52 -53 -54 -90 -91 -92 -118 -119 -120 0
-47 -48 -49 -50 -93 -94 -95 -100 -101 -106 0
-47 -48 -49 -51 -93 -94 -96 -100 -102 -107 0
-47 -48 -49 -52 -93 -94 -97 -100 -103 -108 0
-47 -48 -49 -53 -93 -94 -98 -100 -104 -109 0
-47 -48 -49 -54 -93 -94 -99 -100 -105 -110 0
-47 -48 -50 -51 -93 -95 -96 -101 -102 -111 0
-47 -48 -50 -52 -93 -95 -97 -101 -103 -112 0
-47 -48 -50 -53 -93 -95 -98 -101 -104 -113 0
-47 -48 -50 -54 -93 -95 -99 -101 -105 -114 0
-47 -48 -51 -52 -93 -96 -97 -102 -103 -115 0
-47 -48 -51 -53 -93 -96 -98 -102 -104 -116 0
-47 -48 -51 -54 -93 -96 -99 -102 -105 -117 0
-47 -48 -52 -53 -93 -97 -98 -103 -104 -118 0
-47 -48 -52 -54 -93 -97 -99 -103 -105 -119 0
-47 -48 -53 -54 -93 -98 -99 -104 -105 -120 0
-47 -49 -50 -51 -94 -95 -96 -106 -107 -111 0
-47 -49 -50 -52 -94 -95 -97 -106 -108 -112 0
-47 -49 -50 -53 -94 -95 -98 -106 -109 -113 0
-47 -49 -50 -54 -94 -95 -99 -106 -110 -114 0
-47 -49 -51 -52 -94 -96 -97 -107 -108 -115 0
-47 -49 -51 -53 -94 -96 -98 -107 -109 -116 0
-47 -49 -51 -54 -94 -96 -99 -107 -110 -117 0
-47 -49 -52 -53 -94 -97 -98 -108 -109 -118 0
-47 -49 -52 -54 -94 -97 -99 -108 -110 -119 0
-47 -49 -53 -54 -94 -98 -99 -109 -110 -120 0
-47 -50 -51 -52 -95 -96 -97 -111 -112 -115 0
-47 -50 -51 -53 -95 -96 -98 -111 -113 -116 0
-47 -50 -51 -54 -95 -96 -99 -111 -114 -117 0
-47 -50 -52 -53 -95 -97 -98 -112 -113 -118 0
-47 -50 -52 -54 -95 -97 -99 -112 -114 -119 0
-47 -50 -53 -54 -95 -98 -99 -113 -114 -120 0
-47 -51 -52 -53 -96 -97 -98 -115 -116 -118 0
-47 -51 -52 -54 -96 -97 -99 -115 -117 -119 0
-47 -51 -53 -54 -96 -98 -99 -116 -117 -120 0
-47 -52 -53 -54 -97 -98 -99 -118 -119 -120 0
-48 -49 -50 -51 -100 -101 -102 -106 -107 -111 0
-48 -49 -50 -52 -100 -101 -103 -106 -108 -112 0
-48 -49 -50 -53 -100 -101 -104 -106 -109 -113 0
-48 -49 -50 -54 -100 -101 -105 -106 -110 -114 0
-48 -49 -51 -52 -100 -102 -103 -107 -108 -115 0
-48 -49 -51 -53 -100 -102 -104 -107 -109 -116 0
-48 -49 -51 -54 -100 -102 -105 -107 -110 -117 0
-48 -49 -52 -53 -100 -103 -104 -108 -109 -118 0
-48 -49 -52 -54 -100 -103 -105 -108 -110 -119 0
-48 -49 -53 -54 -100 -104 -105 -109 -110 -120 0
-48 -50 -51 -52 -101 -102 -103 -111 -112 -115 0
-48 -50 -51 -53 -101 -102 -104 -111 -113 -116 0
-48 -50 -51 -54 -101 -102 -105 -111 -114 -117 0
-48 -50 -52 -53 -101 -103 -104 -112 -113 -118 0
-48 -50 -52 -54 -101 -103 -105 -112 -114 -119 0
-48 -50 -53 -54 -101 -104 -105 -113 -114 -120 0
-48 -51 -52 -53 -102 -103 -104 -115 -116 -118 0
-48 -51 -52 -54 -102 -103 -105 -115 -117 -119 0
-48 -51 -53 -54 -102 -104 -105 -116 -117 -120 0
-48 -52 -53 -54 -103 -104 -105 -118 -119 -120 0
-49 -50 -51 -52 -106 -107 -108 -111 -112 -115 0
-49 -50 -51 -53 -106 -107 -109 -111 -113 -116 0
-49 -50 -51 -54 -106 -107 -110 -111 -114 -117 0
-49 -50 -52 -53 -106 -108 -109 -112 -113 -118 0
-49 -50 -52 -54 -106 -108 -110 -112 -114 -119 0
-49 -50 -53 -54 -106 -109 -110 -113 -114 -120 0
-49 -51 -52 -53 -107 -108 -109 -115 -116 -118 0
-49 -51 -52 -54 -107 -108 -110 -115 -117 -119 0
-49 -51 -53 -54 -107 -109 -110 -116 -117 -120 0
-49 -52 -53 -54 -108 -109 -110 -118 -119 -120 0
-50 -51 -52 -53 -111 -112 -113 -115 -116 -118 0
-50 -51 -52 -54 -111 -112 -114 -115 -117 -119 0
-50 -51 -53 -54 -111 -113 -114 -116 -117 -120 0
-50 -52 -53 -54 -112 -113 -114 -118 -119 -120 0
-51 -52 -53 -54 -115 -116 -117 -118 -119 -120 0
-55 -56 -57 -58 -66 -67 -68 -76 -77 -85 0
-55 -56 -57 -59 -66 -67 -69 -76 -78 -86 0
-55 -56 -57 -60 -66 -67 -70 -76 -79 -87 0
-55 -56 -57 -61 -66 -67 -71 -76 -80 -88 0
-55 -56 -57 -62 -66 -67 -72 -76 -81 -89 0
-55 -56 -57 -63 -66 -67 -73 -76 -82 -90 0
-55 -56 -57 -64 -66 -67 -74 -76 -83 -91 0
-55 -56 -57 -65 -66 -67 -75 -76 -84 -92 0
-55 -56 -58 -59 -66 -68 -69 -77 -78 -93 0
-55 -56 -58 -60 -66 -68 -70 -77 -79 -94 0
-55 -56 -58 -61 -66 -68 -71 -77 -80 -95 0
-55 -56 -58 -62 -66 -68 -72 -77 -81 -96 0
-55 -56 -58 -63 -66 -68 -73 -77 -82 -97 0
-55 -56 -58 -64 -66 -68 -74 -77 -83 -98 0
-55 -56 -58 -65 -66 -68 -75 -77 -84 -99 0
-55 -56 -59 -60 -66 -69 -70 -78 -79 -100 0
-55 -56 -59 -61 -66 -69 -71 -78 -80 -101 0
-55 -56 -59 -62 -66 -69 -72 -78 -81 -102 0
-55 -56 -59 -63 -66 -69 -73 -78 -82 -103 0
-55 -56 -59 -64 -66 -69 -74 -78 -83 -104 0
-55 -56 -59 -65 -66 -69 -75 -78 -84 -105 0
-55 -56 -60 -61 -66 -70 -71 -79 -80 -106 0
-55 -56 -60 -62 -66 -70 -72 -79 -81 -107 0
-55 -56 -60 -63 -66 -70 -73 -79 -82 -108 0
-55 -56 -60 -64 -66 -70 -74 -79 -83 -109 0
-55 -56 -60 -65 -66 -70 -75 -79 -84 -110 0
-55 -56 -61 -62 -66 -71 -72 -80 -81 -111 0
-55 -56 -61 -63 -66 -71 -73 -80 -82 -112 0
-55 -56 -61 -64 -66 -71 -74 -80 -83 -113 0
-55 -56 -61 -65 -66 -71 -75 -80 -84 -114 0
-55 -56 -62 -63 -66 -72 -73 -81 -82 -115 0
-55 -56 -62 -64 -66 -72 -74 -81 -83 -116 0
-55 -56 -62 -65 -66 -72 -75 -81 -84 -117 0
-55 -56 -63 -64 -66 -73 -74 -82 -83 -118 0
-55 -56 -63 -65 -66 -73 -75 -82 -84 -119 0
-55 -56 -64 -65 -66 -74 -75 -83 -84 -120 0
-55 -57 -58 -59 -67 -68 -69 -85 -86 -93 0
-55 -57 -58 -60 -67 -68 -70 -85 -87 -94 0
-55 -57 -58 -61 -67 -68 -71 -85 -88 -95 0
-55 -57 -58 -62 -67 -68 -72 -85 -89 -96 0
-55 -57 -58 -63 -67 -68 -73 -85 -90 -97 0
-55 -57 -58 -64 -67 -68 -74 -85 -91 -98 0
-55 -57 -58 -65 -67 -68 -75 -85 -92 -99 0
-55 -57 -59 -60 -67 -69 -70 -86 -87 -100 0
-55 -57 -59 -61 -67 -69 -71 -86 -88 -101 0
-55 -57 -59 -62 -67 -69 -72 -86 -89 -102 0
-55 -57 -59 -63 -67 -69 -73 -86 -90 -103 0
-55 -57 -59 -64 -67 -69 -74 -86 -91 -104 0
-55 -57 -59 -65 -67 -69 -75 -86 -92 -105 0
-55 -57 -60 -61 -67 -70 -71 -87 -88 -106 0
-55 -57 -60 -62 -67 -70 -72 -87 -89 -107 0
-55 -57 -60 -63 -67 -70 -73 -87 -90 -108 0
-55 -57 -60 -64 -67 -70 -74 -87 -91 -109 0
-55 -57 -60 -65 -67 -70 -75 -87 -92 -110 0
-55 -57 -61 -62 -67 -71 -72 -88 -89 -111 0
-55 -57 -61 -63 -67 -71 -73 -88 -90 -112 0
-55 -57 -61 -64 -67 -71 -74 -88 -91 -113 0
-55 -57 -61 -65 -67 -71 -75 -88 -92 -114 0
-55 -57 -62 -63 -67 -72 -73 -89 -90 -115 0
-55 -57 -62 -64 -67 -72 -74 -89 -91 -116 0
-55 -57 -62 -65 -67 -72 -75 -89 -92 -117 0
-55 -57 -63 -64 -67 -73 -74 -90 -91 -118 0
-55 -57 -63 -65 -67 -73 -75 -90 -92 -119 0
-55 -57 -64 -65 -67 -74 -75 -91 -92 -120 0
-55 -58 -59 -60 -68 -69 -70 -93 -94 -100 0
-55 -58 -59 -61 -68 -69 -71 -93 -95 -101 0
-55 -58 -59 -62 -68 -69 -72 -93 -96 -102 0
-55 -58 -59 -63 -68 -69 -73 -93 -97 -103 0
-55 -58 -59 -64 -68 -69 -74 -93 -98 -104 0
-55 -58 -59 -65 -68 -69 -75 -93 -99 -105 0
-55 -58 -60 -61 -68 -70 -71 -94 -95 -106 0
-55 -58 -60 -62 -68 -70 -72 -94 -96 -107 0
-55 -58 -60 -63 -68 -70 -73 -94 -97 -108 0
-55 -58 -60 -64 -68 -70 -74 -94 -98 -109 0
-55 -58 -60 -65 -68 -70 -75 -94 -99 -110 0
-55 -58 -61 -62 -68 -71 -72 -95 -96 -111 0
-55 -58 -61 -63 -68 -71 -73 -95 -97 -112 0
-55 -58 -61 -64 -68 -71 -74 -95 -98 -113 0
-55 -58 -61 -65 -68 -71 -75 -95 -99 -114 0
-55 -58 -62 -63 -68 -72 -73 -96 -97 -115 0
-55 -58 -62 -64 -68 -72 -74 -96 -98 -116 0
-55 -58 -62 -65 -68 -72 -75 -96 -99 -117 0
-55 -58 -63 -64 -68 -73 -74 -97 -98 -118 0
-55 -58 -63 -65 -68 -73 -75 -97 -99 -119 0
-55 -58 -64 -65 -68 -74 -75 -98 -99 -120 0
-55 -59 -60 -61 -69 -70 -71 -100 -101 -106 0
-55 -59 -60 -62 -69 -70 -72 -100 -102 -107 0
-55 -59 -60 -63 -69 -70 -73 -100 -103 -108 0
-55 -59 -60 -64 -69 -70 -74 -100 -104 -109 0
-55 -59 -60 -65 -69 -70 -75 -100 -105 -110 0
-55 -59 -61 -62 -69 -71 -72 -101 -102 -111 0
-55 -59 -61 -63 -69 -71 -73 -101 -103 -112 0
-55 -59 -61 -64 -69 -71 -74 -101 -104 -113 0
-55 -59 -61 -65 -69 -71 -75 -101 -105 -114 0
-55 -59 -62 -63 -69 -72 -73 -102 -103 -115 0
-55 -59 -62 -64 -69 -72 -74 -102 -104 -116 0
-55 -59 -62 -65 -69 -72 -75 -102 -105 -117 0
-55 -59 -63 -64 -69 -73 -74 -103 -104 -118 0
-55 -59 -63 -65 -69 -73 -75 -103 -105 -119 0
-55 -59 -64 -65 -69 -74 -75 -104 -105 -120 0
-55 -60 -61 -62 -70 -71 -72 -106 -107 -111 0
-55 -60 -61 -63 -70 -71 -73 -106 -108 -112 0
-55 -60 -61 -64 -70 -71 -74 -106 -109 -113 0
-55 -60 -61 -65 -70 -71 -75 -106 -110 -114 0
-55 -60 -62 -63 -70 -72 -73 -107 -108 -115 0
-55 -60 -62 -64 -70 -72 -74 -107 -109 -116 0
-55 -60 -62 -65 -70 -72 -75 -107 -110 -117 0
-55 -60 -63 -64 -70 -73 -74 -108 -109 -118 0
-55 -60 -63 -65 -70 -73 -75 -108 -110 -119 0
-55 -60 -64 -65 -70 -74 -75 -109 -110 -120 0
-55 -61 -62 -63 -71 -72 -73 -111 -112 -115 0
-55 -61 -62 -64 -71 -72 -74 -111 -113 -116 0
-55 -61 -62 -65 -71 -72 -75 -111 -114 -117 0
-55 -61 -63 -64 -71 -73 -74 -112 -113 -118 0
-55 -61 -63 -65 -71 -73 -75 -112 -114 -119 0
-55 -61 -64 -65 -71 -74 -75 -113 -114 -120 0
-55 -62 -63 -64 -72 -73 -74 -115 -116 -118 0
-55 -62 -63 -65 -72 -73 -75 -115 -117 -119 0
-55 -62 -64 -65 -72 -74 -75 -116 -117 -120 0
-55 -63 -64 -65 -73 -74 -75 -118 -119 -120 0
-56 -57 -58 -59 -76 -77 -78 -85 -86 -93 0
-56 -57 -58 -60 -76 -77 -79 -85 -87 -94 0
-56 -57 -58 -61 -76 -77 -80 -85 -88 -95 0
-56 -57 -58 -62 -76 -77 -81 -85 -89 -96 0
-56 -57 -58 -63 -76 -77 -82 -85 -90 -97 0
-56 -57 -58 -64 -76 -77 -83 -85 -91 -98 0
-56 -57 -58 -65 -76 -77 -84 -85 -92 -99 0
-56 -57 -59 -60 -76 -78 -79 -86 -87 -100 0
-56 -57 -59 -61 -76 -78 -80 -86 -88 -101 0
-56 -57 -59 -62 -76 -78 -81 -86 -89 -102 0
-56 -57 -59 -63 -76 -78 -82 -86 -90 -103 0
-56 -57 -59 -64 -76 -78 -83 -86 -91 -104 0
-56 -57 -59 -65 -76 -78 -84 -86 -92 -105 0
-56 -57 -60 -61 -76 -79 -80 -87 -88 -106 0
-56 -57 -60 -62 -76 -79 -81 -87 -89 -107 0
-56 -57 -60 -63 -76 -79 -82 -87 -90 -108 0
-56 -57 -60 -64 -76 -79 -83 -87 -91 -109 0
-56 -57 -60 -65 -76 -79 -84 -87 -92 -110 0
-56 -57 -61 -62 -76 -80 -81 -88 -89 -111 0
-56 -57 -61 -63 -76 -80 -82 -88 -90 -112 0
-56 -57 -61 -64 -76 -80 -83 -88 -91 -113 0
-56 -57 -61 -65 -76 -80 -84 -88 -92 -114 0
-56 -57 -62 -63 -76 -81 -82 -89 -90 -115 0
-56 -57 -62 -64 -76 -81 -83 -89 -91 -116 0
-56 -57 -62 -65 -76 -81 -84 -89 -92 -117 0
-56 -57 -63 -64 -76 -82 -83 -90 -91 -118 0
-56 -57 -63 -65 -76 -82 -84 -90 -92 -119 0
-56 -57 -64 -65 -76 -83 -84 -91 -92 -120 0
-56 -58 -59 -60 -77 -78 -79 -93 -94 -100 0
-56 -58 -59 -61 -77 -78 -80 -93 -95 -101 0
-56 -58 -59 -62 -77 -78 -81 -93 -96 -102 0
-56 -58 -59 -63 -77 -78 -82 -93 -97 -103 0
-56 -58 -59 -64 -77 -78 -83 -93 -98 -104 0
-56 -58 -59 -65 -77 -78 -84 -93 -99 -105 0
-56 -58 -60 -61 -77 -79 -80 -94 -95 -106 0
-56 -58 -60 -62 -77 -79 -81 -94 -96 -107 0
-56 -58 -60 -63 -77 -79 -82 -94 -97 -108 0
-56 -58 -60 -64 -77 -79 -83 -94 -98 -109 0
-56 -58 -60 -65 -77 -79 -84 -94 -99 -110 0
-56 -58 -61 -62 -77 -80 -81 -95 -96 -111 0
-56 -58 -61 -63 -77 -80 -82 -95 -97 -112 0
-56 -58 -61 -64 -77 -80 -83 -95 -98 -113 0
-56 -58 -61 -65 -77 -80 -84 -95 -99 -114 0
-56 -58 -62 -63 -77 -81 -82 -96 -97 -115 0
-56 -58 -62 -64 -77 -81 -83 -96 -98 -116 0
-56 -58 -62 -65 -77 -81 -84 -96 -99 -117 0
-56 -58 -63 -64 -77 -82 -83 -97 -98 -118 0
-56 -58 -63 -65 -77 -82 -84 -97 -99 -119 0
-56 -58 -64 -65 -77 -83 -84 -98 -99 -120 0
-56 -59 -60 -61 -78 -79 -80 -100 -101 -106 0
-56 -59 -60 -62 -78 -79 -81 -100 -102 -107 0
-56 -59 -60 -63 -78 -79 -82 -100 -103 -108 0
-56 -59 -60 -64 -78 -79 -83 -100 -104 -109 0
-56 -59 -60 -65 -78 -79 -84 -100 -105 -110 0
-56 -59 -61 -62 -78 -80 -81 -101 -102 -111 0
-56 -59 -61 -63 -78 -80 -82 -101 -103 -112 0
-56 -59 -61 -64 -78 -80 -83 -101 -104 -113 0
-56 -59 -61 -65 -78 -80 -84 -101 -105 -114 0
-56 -59 -62 -63 -78 -81 -82 -102 -103 -115 0
-56 -59 -62 -64 -78 -81 -83 -102 -104 -116 0
-56 -59 -62 -65 -78 -81 -84 -102 -105 -117 0
-56 -59 -63 -64 -78 -82 -83 -103 -104 -118 0
-56 -59 -63 -65 -78 -82 -84 -103 -105 -119 0
-56 -59 -64 -65 -78 -83 -84 -104 -105 -120 0
-56 -60 -61 -62 -79 -80 -81 -106 -107 -111 0
-56 -60 -61 -63 -79 -80 -82 -106 -108 -112 0
-56 -60 -61 -64 -79 -80 -83 -106 -109 -113 0
-56 -60 -61 -65 -79 -80 -84 -106 -110 -114 0
-56 -60 -62 -63 -79 -81 -82 -107 -108 -115 0
-56 -60 -62 -64 -79 -81 -83 -107 -109 -116 0
-56 -60 -62 -65 -79 -81 -84 -107 -110 -117 0
-56 -60 -63 -64 -79 -82 -83 -108 -109 -118 0
-56 -60 -63 -65 -79 -82 -84 -108 -110 -119 0
-56 -60 -64 -65 -79 -83 -84 -109 -110 -120 0
-56 -61 -62 -63 -80 -81 -82 -111 -112 -115 0
-56 -61 -62 -64 -80 -81 -83 -111 -113 -116 0
-56 -61 -62 -65 -80 -81 -84 -111 -114 -117 0
-56 -61 -63 -64 -80 -82 -83 -112 -113 -118 0
-56 -61 -63 -65 -80 -82 -84 -112 -114 -119 0
-56 -61 -64 -65 -80 -83 -84 -113 -114 -120 0
-56 -62 -63 -64 -81 -82 -83 -115 -116 -118 0
-56 -62 -63 -65 -81 -82 -84 -115 -117 -119 0
-56 -62 -64 -65 -81 -83 -84 -116 -117 -120 0
-56 -63 -64 -65 -82 -83 -84 -118 -119 -120 0
-57 -58 -59 -60 -85 -86 -87 -93 -94 -100 0
-57 -58 -59 -61 -85 -86 -88 -93 -95 -101 0
-57 -58 -59 -62 -85 -86 -89 -93 -96 -102 0
-57 -58 -59 -63 -85 -86 -90 -93 -97 -103 0
-57 -58 -59 -64 -85 -86 -91 -93 -98 -104 0
-57 -58 -59 -65 -85 -86 -92 -93 -99 -105 0
-57 -58 -60 -61 -85 -87 -88 -94 -95 -106 0
-57 -58 -60 -62 -85 -87 -89 -94 -96 -107 0
-57 -58 -60 -63 -85 -87 -90 -94 -97 -108 0
-57 -58 -60 -64 -85 -87 -91 -94 -98 -109 0
-57 -58 -60 -65 -85 -87 -92 -94 -99 -110 0
-57 -58 -61 -62 -85 -88 -89 -95 -96 -111 0
-57 -58 -61 -63 -85 -88 -90 -95 -97 -112 0
-57 -58 -61 -64 -85 -88 -91 -95 -98 -113 0
-57 -58 -61 -65 -85 -88 -92 -95 -99 -114 0
-57 -58 -62 -63 -85 -89 -90 -96 -97 -115 0
-57 -58 -62 -64 -85 -89 -91 -96 -98 -116 0
-57 -58 -62 -65 -85 -89 -92 -96 -99 -117 0
-57 -58 -63 -64 -85 -90 -91 -97 -98 -118 0
-57 -58 -63 -65 -85 -90 -92 -97 -99 -119 0
-57 -58 -64 -65 -85 -91 -92 -98 -99 -120 0
-57 -59 -60 -61 -86 -87 -88 -100 -101 -106 0
-57 -59 -60 -62 -86 -87 -89 -100 -102 -107 0
-57 -59 -60 -63 -86 -87 -90 -100 -103 -108 0
-57 -59 -60 -64 -86 -87 -91 -100 -104 -109 0
-57 -59 -60 -65 -86 -87 -92 -100 -105 -110 0
-57 -59 -61 -62 -86 -88 -89 -101 -102 -111 0
-57 -59 -61 -63 -86 -88 -90 -101 -103 -112 0
-57 -59 -61 -64 -86 -88 -91 -101 -104 -113 0
-57 -59 -61 -65 -86 -88 -92 -101 -105 -114 0
-57 -59 -62 -63 -86 -89 -90 -102 -103 -115 0
-57 -59 -62 -64 -86 -89 -91 -102 -104 -116 0
-57 -59 -62 -65 -86 -89 -92 -102 -105 -117 0
-57 -59 -63 -64 -86 -90 -91 -103 -104 -118 0
-57 -59 -63 -65 -86 -90 -92 -103 -105 -119 0
-57 -59 -64 -65 -86 -91 -92 -104 -105 -120 0
-57 -60 -61 -62 -87 -88 -89 -106 -107 -111 0
-57 -60 -61 -63 -87 -88 -90 -106 -108 -112 0
-57 -60 -61 -64 -87 -88 -91 -106 -109 -113 0
-57 -60 -61 -65 -87 -88 -92 -106 -110 -114 0
-57 -60 -62 -63 -87 -89 -90 -107 -108 -115 0
-57 -60 -62 -64 -87 -89 -91 -107 -109 -116 0
-57 -60 -62 -65 -87 -89 -92 -107 -110 -117 0
-57 -60 -63 -64 -87 -90 -91 -108 -109 -118 0
-57 -60 -63 -65 -87 -90 -92 -108 -110 -119 0
-57 -60 -64 -65 -87 -91 -92 -109 -110 -120 0
-57 -61 -62 -63 -88 -89 -90 -111 -112 -115 0
-57 -61 -62 -64 -88 -89 -91 -111 -113 -116 0
-57 -61 -62 -65 -88 -89 -92 -111 -114 -117 0
-57 -61 -63 -64 -88 -90 -91 -112 -113 -118 0
-57 -61 -63 -65 -88 -90 -92 -112 -114 -119 0
-57 -61 -64 -65 -88 -91 -92 -113 -114 -120 0
-57 -62 -63 -64 -89 -90 -91 -115 -116 -118 0
-57 -62 -63 -65 -89 -90 -92 -115 -117 -119 0
-57 -62 -64 -65 -89 -91 -92 -116 -117 -120 0
-57 -63 -64 -65 -90 -91 -92 -118 -119 -120 0
-58 -59 -60 -61 -93 -94 -95 -100 -101 -106 0
-58 -59 -60 -62 -93 -94 -96 -100 -102 -107 0
-58 -59 -60 -63 -93 -94 -97 -100 -103 -108 0
-58 -59 -60 -64 -93 -94 -98 -100 -104 -109 0
-58 -59 -60 -65 -93 -94 -99 -100 -105 -110 0
-58 -59 -61 -62 -93 -95 -96 -101 -102 -111 0
-58 -59 -61 -63 -93 -95 -97 -101 -103 -112 0
-58 -59 -61 -64 -93 -95 -98 -101 -104 -113 0
-58 -59 -61 -65 -93 -95 -99 -101 -105 -114 0
-58 -59 -62 -63 -93 -96 -97 -102 -103 -115 0
-58 -59 -62 -64 -93 -96 -98 -102 -104 -116 0
-58 -59 -62 -65 -93 -96 -99 -102 -105 -117 0
-58 -59 -63 -64 -93 -97 -98 -103 -104 -118 0
-58 -59 -63 -65 -93 -97 -99 -103 -105 -119 0
-58 -59 -64 -65 -93 -98 -99 -104 -105 -120 0
-58 -60 -61 -62 -94 -95 -96 -106 -107 -111 0
-58 -60 -61 -63 -94 -95 -97 -106 -108 -112 0
-58 -60 -61 -64 -94 -95 -98 -106 -109 -113 0
-58 -60 -61 -65 -94 -95 -99 -106 -110 -114 0
-58 -60 -62 -63 -94 -96 -97 -107 -108 -115 0
-58 -60 -62 -64 -94 -96 -98 -107 -109 -116 0
-58 -60 -62 -65 -94 -96 -99 -107 -110 -117 0
-58 -60 -63 -64 -94 -97 -98 -108 -109 -118 0
-58 -60 -63 -65 -94 -97 -99 -108 -110 -119 0
-58 -60 -64 -65 -94 -98 -99 -109 -110 -120 0
-58 -61 -62 -63 -95 -96 -97 -111 -112 -115 0
-58 -61 -62 -64 -95 -96 -98 -111 -113 -116 0
-58 -61 -62 -65 -95 -96 -99 -111 -114 -117 0
-58 -61 -63 -64 -95 -97 -98 -112 -113 -118 0
-58 -61 -63 -65 -95 -97 -99 -112 -114 -119 0
-58 -61 -64 -65 -95 -98 -99 -113 -114 -120 0
-58 -62 -63 -64 -96 -97 -98 -115 -116 -118 0
-58 -62 -63 -65 -96 -97 -99 -115 -117 -119 0
-58 -62 -64 -65 -96 -98 -99 -116 -117 -120 0
-58 -63 -64 -65 -97 -98 -99 -118 -119 -120 0
-59 -60 -61 -62 -100 -101 -102 -106 -107 -111 0
-59 -60 -61 -63 -100 -101 -103 -106 -108 -112 0
-59 -60 -61 -64 -100 -101 -104 -106 -109 -113 0
-59 -60 -61 -65 -100 -101 -105 -106 -110 -114 0
-59 -60 -62 -63 -100 -102 -103 -107 -108 -115 0
-59 -60 -62 -64 -100 -102 -104 -107 -109 -116 0
-59 -60 -62 -65 -100 -102 -105 -107 -110 -117 0
-59 -60 -63 -64 -100 -103 -104 -108 -109 -118 0
-59 -60 -63 -65 -100 -103 -105 -108 -110 -119 0
-59 -60 -64 -65 -100 -104 -105 -109 -110 -120 0
-59 -61 -62 -63 -101 -102 -103 -111 -112 -115 0
-59 -61 -62 -64 -101 -102 -104 -111 -113 -116 0
-59 -61 -62 -65 -101 -102 -105 -111 -114 -117 0
-59 -61 -63 -64 -101 -103 -104 -112 -113 -118 0
-59 -61 -63 -65 -101 -103 -105 -112 -114 -119 0
-59 -61 -64 -65 -101 -104 -105 -113 -114 -120 0
-59 -62 -63 -64 -102 -103 -104 -115 -116 -118 0
-59 -62 -63 -65 -102 -103 -105 -115 -117 -119 0
-59 -62 -64 -65 -102 -104 -105 -116 -117 -120 0
-59 -63 -64 -65 -103 -104 -105 -118 -119 -120 0
-60 -61 -62 -63 -106 -107 -108 -111 -112 -115 0
-60 -61 -62 -64 -106 -107 -109 -111 -113 -116 0
-60 -61 -62 -65 -106 -107 -110 -111 -114 -117 0
-60 -61 -63 -64 -106 -108 -109 -112 -113 -118 0
-60 -61 -63 -65 -106 -108 -110 -112 -114 -119 0
-60 -61 -64 -65 -106 -109 -110 -113 -114 -120 0
-60 -62 -63 -64 -107 -108 -109 -115 -116 -118 0
-60 -62 -63 -65 -107 -108 -110 -115 -117 -119 0
-60 -62 -64 -65 -107 -109 -110 -116 -117 -120 0
-60 -63 -64 -65 -108 -109 -110 -118 -119 -120 0
-61 -62 -63 -64 -111 -112 -113 -115 -116 -118 0
-61 -62 -63 -65 -111 -112 -114 -115 -117 -119 0
-61 -62 -64 -65 -111 -113 -114 -116 -117 -120 0
-61 -63 -64 -65 -112 -113 -114 -118 -119 -120 0
-62 -63 -64 -65 -115 -116 -117 -118 -119 -120 0
-66 -67 -68 -69 -76 -77 -78 -85 -86 -93 0
-66 -67 -68 -70 -76 -77 -79 -85 -87 -94 0
-66 -67 -68 -71 -76 -77 -80 -85 -88 -95 0
-66 -67 -68 -72 -76 -77 -81 -85 -89 -96 0
-66 -67 -68 -73 -76 -77 -82 -85 -90 -97 0
-66 -67 -68 -74 -76 -77 -83 -85 -91 -98 0
-66 -67 -68 -75 -76 -77 -84 -85 -92 -99 0
-66 -67 -69 -70 -76 -78 -79 -86 -87 -100 0
-66 -67 -69 -71 -76 -78 -80 -86 -88 -101 0
-66 -67 -69 -72 -76 -78 -81 -86 -89 -102 0
-66 -67 -69 -73 -76 -78 -82 -86 -90 -103 0
-66 -67 -69 -74 -76 -78 -83 -86 -91 -104 0
-66 -67 -69 -75 -76 -78 -84 -86 -92 -105 0
-66 -67 -70 -71 -76 -79 -80 -87 -88 -106 0
-66 -67 -70 -72 -76 -79 -81 -87 -89 -107 0
-66 -67 -70 -73 -76 -79 -82 -87 -90 -108 0
-66 -67 -70 -74 -76 -79 -83 -87 -91 -109 0
-66 -67 -70 -75 -76 -79 -84 -87 -92 -110 0
-66 -67 -71 -72 -76 -80 -81 -88 -89 -111 0
-66 -67 -71 -73 -76 -80 -82 -88 -90 -112 0
-66 -67 -71 -74 -76 -80 -83 -88 -91 -113 0
-66 -67 -71 -75 -76 -80 -84 -88 -92 -114 0
-66 -67 -72 -73 -76 -81 -82 -89 -90 -115 0
-66 -67 -72 -74 -76 -81 -83 -89 -91 -116 0
-66 -67 -72 -75 -76 -81 -84 -89 -92 -117 0
-66 -67 -73 -74 -76 -82 -83 -90 -91 -118 0
-66 -67 -73 -75 -76 -82 -84 -90 -92 -119 0
-66 -67 -74 -75 -76 -83 -84 -91 -92 -120 0
-66 -68 -69 -70 -77 -78 -79 -93 -94 -100 0
-66 -68 -69 -71 -77 -78 -80 -93 -95 -101 0
-66 -68 -69 -72 -77 -78 -81 -93 -96 -102 0
-66 -68 -69 -73 -77 -78 -82 -93 -97 -103 0
-66 -68 -69 -74 -77 -78 -83 -93 -98 -104 0
-66 -68 -69 -75 -77 -78 -84 -93 -99 -105 0
-66 -68 -70 -71 -77 -79 -80 -94 -95 -106 0
-66 -68 -70 -72 -77 -79 -81 -94 -96 -107 0
-66 -68 -70 -73 -77 -79 -82 -94 -97 -108 0
-66 -68 -70 -74 -77 -79 -83 -94 -98 -109 0
-66 -68 -70 -75 -77 -79 -84 -94 -99 -110 0
-66 -68 -71 -72 -77 -80 -81 -95 -96 -111 0
-66 -68 -71 -73 -77 -80 -82 -95 -97 -112 0
-66 -68 -71 -74 -77 -80 -83 -95 -98 -113 0
-66 -68 -71 -75 -77 -80 -84 -95 -99 -114 0
-66 -68 -72 -73 -77 -81 -82 -96 -97 -115 0
-66 -68 -72 -74 -77 -81 -83 -96 -98 -116 0
-66 -68 -72 -75 -77 -81 -84 -96 -99 -117 0
-66 -68 -73 -74 -77 -82 -83 -97 -98 -118 0
-66 -68 -73 -75 -77 -82 -84 -97 -99 -119 0
-66 -68 -74 -75 -77 -83 -84 -98 -99 -120 0
-66 -69 -70 -71 -78 -79 -80 -100 -101 -106 0
-66 -69 -70 -72 -78 -79 -81 -100 -102 -107 0
-66 -69 -70 -73 -78 -79 -82 -100 -103 -108 0
-66 -69 -70 -74 -78 -79 -83 -100 -104 -109 0
-66 -69 -70 -75 -78 -79 -84 -100 -105 -110 0
-66 -69 -71 -72 -78 -80 -81 -101 -102 -111 0
-66 -69 -71 -73 -78 -80 -82 -101 -103 -112 0
-66 -69 -71 -74 -78 -80 -83 -101 -104 -113 0
-66 -69 -71 -75 -78 -80 -84 -101 -105 -114 0
-66 -69 -72 -73 -78 -81 -82 -102 -103 -115 0
-66 -69 -72 -74 -78 -81 -83 -102 -104 -116 0
-66 -69 -72 -75 -78 -81 -84 -102 -105 -117 0
-66 -69 -73 -74 -78 -82 -83 -103 -104 -118 0
-66 -69 -73 -75 -78 -82 -84 -103 -105 -119 0
-66 -69 -74 -75 -78 -83 -84 -104 -105 -120 0
-66 -70 -71 -72 -79 -80 -81 -106 -107 -111 0
-66 -70 -71 -73 -79 -80 -82 -106 -108 -112 0
-66 -70 -71 -74 -79 -80 -83 -106 -109 -113 0
-66 -70 -71 -75 -79 -80 -84 -106 -110 -114 0
-66 -70 -72 -73 -79 -81 -82 -107 -108 -115 0
-66 -70 -72 -74 -79 -81 -83 -107 -109 -116 0
-66 -70 -72 -75 -79 -81 -84 -107 -110 -117 0
-66 -70 -73 -74 -79 -82 -83 -108 -109 -118 0
-66 -70 -73 -75 -79 -82 -84 -108 -110 -119 0
-66 -70 -74 -75 -79 -83 -84 -109 -110 -120 0
-66 -71 -72 -73 -80 -81 -82 -111 -112 -115 0
-66 -71 -72 -74 -80 -81 -83 -111 -113 -116 0
-66 -71 -72 -75 -80 -81 -84 -111 -114 -117 0
-66 -71 -73 -74 -80 -82 -83 -112 -113 -118 0
-66 -71 -73 -75 -80 -82 -84 -112 -114 -119 0
-66 -71 -74 -75 -80 -83 -84 -113 -114 -120 0
-66 -72 -73 -74 -81 -82 -83 -115 -116 -118 0
-66 -72 -73 -75 -81 -82 -84 -115 -117 -119 0
-66 -72 -74 -75 -81 -83 -84 -116 -117 -120 0
-66 -73 -74 -75 -82 -83 -84 -118 -119 -120 0
-67 -68 -69 -70 -85 -86 -87 -93 -94 -100 0
-67 -68 -69 -71 -85 -86 -88 -93 -95 -101 0
-67 -68 -69 -72 -85 -86 -89 -93 -96 -102 0
-67 -68 -69 -73 -85 -86 -90 -93 -97 -103 0
-67 -68 -69 -74 -85 -86 -91 -93 -98 -104 0
-67 -68 -69 -75 -85 -86 -92 -93 -99 -105 0
-67 -68 -70 -71 -85 -87 -88 -94 -95 -106 0
-67 -68 -70 -72 -85 -87 -89 -94 -96 -107 0
-67 -68 -70 -73 -85 -87 -90 -94 -97 -108 0
-67 -68 -70 -74 -85 -87 -91 -94 -98 -109 0
-67 -68 -70 -75 -85 -87 -92 -94 -99 -110 0
-67 -68 -71 -72 -85 -88 -89 -95 -96 -111 0
-67 -68 -71 -73 -85 -88 -90 -95 -97 -112 0
-67 -68 -71 -74 -85 -88 -91 -95 -98 -113 0
-67 -68 -71 -75 -85 -88 -92 -95 -99 -114 0
-67 -68 -72 -73 -85 -89 -90 -96 -97 -115 0
-67 -68 -72 -74 -85 -89 -91 -96 -98 -116 0
-67 -68 -72 -75 -85 -89 -92 -96 -99 -117 0
-67 -68 -73 -74 -85 -90 -91 -97 -98 -118 0
-67 -68 -73 -75 -85 -90 -92 -97 -99 -119 0
-67 -68 -74 -75 -85 -91 -92 -98 -99 -120 0
-67 -69 -70 -71 -86 -87 -88 -100 -101 -106 0
-67 -69 -70 -72 -86 -87 -89 -100 -102 -107 0
-67 -69 -70 -73 -86 -87 -90 -100 -103 -108 0
-67 -69 -70 -74 -86 -87 -91 -100 -104 -109 0
-67 -69 -70 -75 -86 -87 -92 -100 -105 -110 0
-67 -69 -71 -72 -86 -88 -89 -101 -102 -111 0
-67 -69 -71 -73 -86 -88 -90 -101 -103 -112 0
-67 -69 -71 -74 -86 -88 -91 -101 -104 -113 0
-67 -69 -71 -75 -86 -88 -92 -101 -105 -114 0
-67 -69 -72 -73 -86 -89 -90 -102 -103 -115 0
-67 -69 -72 -74 -86 -89 -91 -102 -104 -116 0
-67 -69 -72 -75 -86 -89 -92 -102 -105 -117 0
-67 -69 -73 -74 -86 -90 -91 -103 -104 -118 0
-67 -69 -73 -75 -86 -90 -92 -103 -105 -119 0
-67 -69 -74 -75 -86 -91 -92 -104 -105 -120 0
-67 -70 -71 -72 -87 -88 -89 -106 -107 -111 0
-67 -70 -71 -73 -87 -88 -90 -106 -108 -112 0
-67 -70 -71 -74 -87 -88 -91 -106 -109 -113 0
-67 -70 -71 -75 -87 -88 -92 -106 -110 -114 0
-67 -70 -72 -73 -87 -89 -90 -107 -108 -115 0
-67 -70 -72 -74 -87 -89 -91 -107 -109 -116 0
-67 -70 -72 -75 -87 -89 -92 -107 -110 -117 0
-67 -70 -73 -74 -87 -90 -91 -108 -109 -118 0
-67 -70 -73 -75 -87 -90 -92 -108 -110 -119 0
-67 -70 -74 -75 -87 -91 -92 -109 -110 -120 0
-67 -71 -72 -73 -88 -89 -90 -111 -112 -115 0
-67 -71 -72 -74 -88 -89 -91 -111 -113 -116 0
-67 -71 -72 -75 -88 -89 -92 -111 -114 -117 0
-67 -71 -73 -74 -88 -90 -91 -112 -113 -118 0
-67 -71 -73 -75 -88 -90 -92 -112 -114 -119 0
-67 -71 -74 -75 -88 -91 -92 -113 -114 -120 0
-67 -72 -73 -74 -89 -90 -91 -115 -116 -118 0
-67 -72 -73 -75 -89 -90 -92 -115 -117 -119 0
-67 -72 -74 -75 -89 -91 -92 -116 -117 -120 0
-67 -73 -74 -75 -90 -91 -92 -118 -119 -120 0
-68 -69 -70 -71 -93 -94 -95 -100 -101 -106 0
-68 -69 -70 -72 -93 -94 -96 -100 -102 -107 0
-68 -69 -70 -73 -93 -94 -97 -100 -103 -108 0
-68 -69 -70 -74 -93 -94 -98 -100 -104 -109 0
-68 -69 -70 -75 -93 -94 -99 -100 -105 -110 0
-68 -69 -71 -72 -93 -95 -96 -101 -102 -111 0
-68 -69 -71 -73 -93 -95 -97 -101 -103 -112 0
-68 -69 -71 -74 -93 -95 -98 -101 -104 -113 0
-68 -69 -71 -75 -93 -95 -99 -101 -105 -114 0
-68 -69 -72 -73 -93 -96 -97 -102 -103 -115 0
-68 -69 -72 -74 -93 -96 -98 -102 -104 -116 0
-68 -69 -72 -75 -93 -96 -99 -102 -105 -117 0
-68 -69 -73 -74 -93 -97 -98 -103 -104 -118 0
-68 -69 -73 -75 -93 -97 -99 -103 -105 -119 0
-68 -69 -74 -75 -93 -98 -99 -104 -105 -120 0
-68 -70 -71 -72 -94 -95 -96 -106 -107 -111 0
-68 -70 -71 -73 -94 -95 -97 -106 -108 -112 0
-68 -70 -71 -74 -94 -95 -98 -106 -109 -113 0
-68 -70 -71 -75 -94 -95 -99 -106 -110 -114 0
-68 -70 -72 -73 -94 -96 -97 -107 -108 -115 0
-68 -70 -72 -74 -94 -96 -98 -107 -109 -116 0
-68 -70 -72 -75 -94 -96 -99 -107 -110 -117 0
-68 -70 -73 -74 -94 -97 -98 -108 -109 -118 0
-68 -70 -73 -75 -94 -97 -99 -108 -110 -119 0
-68 -70 -74 -75 -94 -98 -99 -109 -110 -120 0
-68 -71 -72 -73 -95 -96 -97 -111 -112 -115 0
-68 -71 -72 -74 -95 -96 -98 -111 -113 -116 0
-68 -71 -72 -75 -95 -96 -99 -111 -114 -117 0
-68 -71 -73 -74 -95 -97 -98 -112 -113 -118 0
-68 -71 -73 -75 -95 -97 -99 -112 -114 -119 0
-68 -71 -74 -75 -95 -98 -99 -113 -114 -120 0
-68 -72 -73 -74 -96 -97 -98 -115 -116 -118 0
-68 -72 -73 -75 -96 -97 -99 -115 -117 -119 0
-68 -72 -74 -75 -96 -98 -99 -116 -117 -120 0
-68 -73 -74 -75 -97 -98 -99 -118 -119 -120 0
-69 -70 -71 -72 -100 -101 -102 -106 -107 -111 0
-69 -70 -71 -73 -100 -101 -103 -106 -108 -112 0
-69 -70 -71 -74 -100 -101 -104 -106 -109 -113 0
-69 -70 -71 -75 -100 -101 -105 -106 -110 -114 0
-69 -70 -72 -73 -100 -102 -103 -107 -108 -115 0
-69 -70 -72 -74 -100 -102 -104 -107 -109 -116 0
-69 -70 -72 -75 -100 -102 -105 -107 -110 -117 0
-69 -70 -73 -74 -100 -103 -104 -108 -109 -118 0
-69 -70 -73 -75 -100 -103 -105 -108 -110 -119 0
-69 -70 -74 -75 -100 -104 -105 -109 -110 -120 0
-69 -71 -72 -73 -101 -102 -103 -111 -112 -115 0
-69 -71 -72 -74 -101 -102 -104 -111 -113 -116 0
-69 -71 -72 -75 -101 -102 -105 -111 -114 -117 0
-69 -71 -73 -74 -101 -103 -104 -112 -113 -118 0
-69 -71 -73 -75 -101 -103 -105 -112 -114 -119 0
-69 -71 -74 -75 -101 -104 -105 -113 -114 -120 0
-69 -72 -73 -74 -102 -103 -104 -115 -116 -118 0
-69 -72 -73 -75 -102 -103 -105 -115 -117 -119 0
-69 -72 -74 -75 -102 -104 -105 -116 -117 -120 0
-69 -73 -74 -75 -103 -104 -105 -118 -119 -120 0
-70 -71 -72 -73 -106 -107 -108 -111 -112 -115 0
-70 -71 -72 -74 -106 -107 -109 -111 -113 -116 0
-70 -71 -72 -75 -106 -107 -110 -111 -114 -117 0
-70 -71 -73 -74 -106 -108 -109 -112 -113 -118 0
-70 -71 -73 -75 -106 -108 -110 -112 -114 -119 0
-70 -71 -74 -75 -106 -109 -110 -113 -114 -120 0
-70 -72 -73 -74 -107 -108 -109 -115 -116 -118 0
-70 -72 -73 -75 -107 -108 -110 -115 -117 -119 0
-70 -72 -74 -75 -107 -109 -110 -116 -117 -120 0
-70 -73 -74 -75 -108 -109 -110 -118 -119 -120 0
-71 -72 -73 -74 -111 -112 -113 -115 -116 -118 0
-71 -72 -73 -75 -111 -112 -114 -115 -117 -119 0
-71 -72 -74 -75 -111 -113 -114 -116 -117 -120 0
-71 -73 -74 -75 -112 -113 -114 -118 -119 -120 0
-72 -73 -74 -75 -115 -116 -117 -118 -119 -120 0
-76 -77 -78 -79 -85 -86 -87 -93 -94 -100 0
-76 -77 -78 -80 -85 -86 -88 -93 -95 -101 0
-76 -77 -78 -81 -85 -86 -89 -93 -96 -102 0
-76 -77 -78 -82 -85 -86 -90 -93 -97 -103 0
-76 -77 -78 -83 -85 -86 -91 -93 -98 -104 0
-76 -77 -78 -84 -85 -86 -92 -93 -99 -105 0
-76 -77 -79 -80 -85 -87 -88 -94 -95 -106 0
-76 -77 -79 -81 -85 -87 -89 -94 -96 -107 0
-76 -77 -79 -82 -85 -87 -90 -94 -97 -108 0
-76 -77 -79 -83 -85 -87 -91 -94 -98 -109 0
-76 -77 -79 -84 -85 -87 -92 -94 -99 -110 0
-76 -77 -80 -81 -85 -88 -89 -95 -96 -111 0
-76 -77 -80 -82 -85 -88 -90 -95 -97 -112 0
-76 -77 -80 -83 -85 -88 -91 -95 -98 -113 0
-76 -77 -80 -84 -85 -88 -92 -95 -99 -114 0
-76 -77 -81 -82 -85 -89 -90 -96 -97 -115 0
-76 -77 -81 -83 -85 -89 -91 -96 -98 -116 0
-76 -77 -81 -84 -85 -89 -92 -96 -99 -117 0
-76 -77 -82 -83 -85 -90 -91 -97 -98 -118 0
-76 -77 -82 -84 -85 -90 -92 -97 -99 -119 0
-76 -77 -83 -84 -85 -91 -92 -98 -99 -120 0
-76 -78 -79 -80 -86 -87 -88 -100 -101 -106 0
-76 -78 -79 -81 -86 -87 -89 -100 -102 -107 0
-76 -78 -79 -82 -86 -87 -90 -100 -103 -108 0
-76 -78 -79 -83 -86 -87 -91 -100 -104 -109 0
-76 -78 -79 -84 -86 -87 -92 -100 -105 -110 0
-76 -78 -80 -81 -86 -88 -89 -101 -102 -111 0
-76 -78 -80 -82 -86 -88 -90 -101 -103 -112 0
-76 -78 -80 -83 -86 -88 -91 -101 -104 -113 0
-76 -78 -80 -84 -86 -88 -92 -101 -105 -114 0
-76 -78 -81 -82 -86 -89 -90 -102 -103 -115 0
-76 -78 -81 -83 -86 -89 -91 -102 -104 -116 0
-76 -78 -81 -84 -86 -89 -92 -102 -105 -117 0
-76 -78 -82 -83 -86 -90 -91 -103 -104 -118 0
-76 -78 -82 -84 -86 -90 -92 -103 -105 -119 0
-76 -78 -83 -84 -86 -91 -92 -104 -105 -120 0
-76 -79 -80 -81 -87 -88 -89 -106 -107 -111 0
-76 -79 -80 -82 -87 -88 -90 -106 -108 -112 0
-76 -79 -80 -83 -87 -88 -91 -106 -109 -113 0
-76 -79 -80 -84 -87 -88 -92 -106 -110 -114 0
-76 -79 -81 -82 -87 -89 -90 -107 -108 -115 0
-76 -79 -81 -83 -87 -89 -91 -107 -109 -116 0
-76 -79 -81 -84 -87 -89 -92 -107 -110 -117 0
-76 -79 -82 -83 -87 -90 -91 -108 -109 -118 0
-76 -79 -82 -84 -87 -90 -92 -108 -110 -119 0
-76 -79 -83 -84 -87 -91 -92 -109 -110 -120 0
-76 -80 -81 -82 -88 -89 -90 -111 -112 -115 0
-76 -80 -81 -83 -88 -89 -91 -111 -113 -116 0
-76 -80 -81 -84 -88 -89 -92 -111 -114 -117 0
-76 -80 -82 -83 -88 -90 -91 -112 -113 -118 0
-76 -80 -82 -84 -88 -90 -92 -112 -114 -119 0
-76 -80 -83 -84 -88 -91 -92 -113 -114 -120 0
-76 -81 -82 -83 -89 -90 -91 -115 -116 -118 0
-76 -81 -82 -84 -89 -90 -92 -115 -117 -119 0
-76 -81 -83 -84 -89 -91 -92 -116 -117 -120 0
-76 -82 -83 -84 -90 -91 -92 -118 -119 -120 0
-77 -78 -79 -80 -93 -94 -95 -100 -101 -106 0
-77 -78 -79 -81 -93 -94 -96 -100 -102 -107 0
-77 -78 -79 -82 -93 -94 -97 -100 -103 -108 0
-77 -78 -79 -83 -93 -94 -98 -100 -104 -109 0
-77 -78 -79 -84 -93 -94 -99 -100 -105 -110 0
-77 -78 -80 -81 -93 -95 -96 -101 -102 -111 0
-77 -78 -80 -82 -93 -95 -97 -101 -103 -112 0
-77 -78 -80 -83 -93 -95 -98 -101 -104 -113 0
-77 -78 -80 -84 -93 -95 -99 -101 -105 -114 0
-77 -78 -81 -82 -93 -96 -97 -102 -103 -115 0
-77 -78 -81 -83 -93 -96 -98 -102 -104 -116 0
-77 -78 -81 -84 -93 -96 -99 -102 -105 -117 0
-77 -78 -82 -83 -93 -97 -98 -103 -104 -118 0
-77 -78 -82 -84 -93 -97 -99 -103 -105 -119 0
-77 -78 -83 -84 -93 -98 -99 -104 -105 -120 0
-77 -79 -80 -81 -94 -95 -96 -106 -107 -111 0
-77 -79 -80 -82 -94 -95 -97 -106 -108 -112 0
-77 -79 -80 -83 -94 -95 -98 -106 -109 -113 0
-77 -79 -80 -84 -94 -95 -99 -106 -110 -114 0
-77 -79 -81 -82 -94 -96 -97 -107 -108 -115 0
-77 -79 -81 -83 -94 -96 -98 -107 -109 -116 0
-77 -79 -81 -84 -94 -96 -99 -107 -110 -117 0
-77 -79 -82 -83 -94 -97 -98 -108 -109 -118 0
-77 -79 -82 -84 -94 -97 -99 -108 -110 -119 0
-77 -79 -83 -84 -94 -98 -99 -109 -110 -120 0
-77 -80 -81 -82 -95 -96 -97 -111 -112 -115 0
-77 -80 -81 -83 -95 -96 -98 -111 -113 -116 0
-77 -80 -81 -84 -95 -96 -99 -111 -114 -117 0
-77 -80 -82 -83 -95 -97 -98 -112 -113 -118 0
-77 -80 -82 -84 -95 -97 -99 -112 -114 -119 0
-77 -80 -83 -84 -95 -98 -99 -113 -114 -120 0
-77 -81 -82 -83 -96 -97 -98 -115 -116 -118 0
-77 -81 -82 -84 -96 -97 -99 -115 -117 -119 0
-77 -81 -83 -84 -96 -98 -99 -116 -117 -120 0
-77 -82 -83 -84 -97 -98 -99 -118 -119 -120 0
-78 -79 -80 -81 -100 -101 -102 -106 -107 -111 0
-78 -79 -80 -82 -100 -101 -103 -106 -108 -112 0
-78 -79 -80 -83 -100 -101 -104 -106 -109 -113 0
-78 -79 -80 -84 -100 -101 -105 -106 -110 -114 0
-78 -79 -81 -82 -100 -102 -103 -107 -108 -115 0
-78 -79 -81 -83 -100 -102 -104 -107 -109 -116 0
-78 -79 -81 -84 -100 -102 -105 -107 -110 -117 0
-78 -79 -82 -83 -100 -103 -104 -108 -109 -118 0
-78 -79 -82 -84 -100 -103 -105 -108 -110 -119 0
-78 -79 -83 -84 -100 -104 -105 -109 -110 -120 0
-78 -80 -81 -82 -101 -102 -103 -111 -112 -115 0
-78 -80 -81 -83 -101 -102 -104 -111 -113 -116 0
-78 -80 -81 -84 -101 -102 -105 -111 -114 -117 0
-78 -80 -82 -83 -101 -103 -104 -112 -113 -118 0
-78 -80 -82 -84 -101 -103 -105 -112 -114 -119 0
-78 -80 -83 -84 -101 -104 -105 -113 -114 -120 0
-78 -81 -82 -83 -102 -103 -104 -115 -116 -118 0
-78 -81 -82 -84 -102 -103 -105 -115 -117 -119 0
-78 -81 -83 -84 -102 -104 -105 -116 -117 -120 0
-78 -82 -83 -84 -103 -104 -105 -118 -119 -120 0
-79 -80 -81 -82 -106 -107 -108 -111 -112 -115 0
-79 -80 -81 -83 -106 -107 -109 -111 -113 -116 0
-79 -80 -81 -84 -106 -107 -110 -111 -114 -117 0
-79 -80 -82 -83 -106 -108 -109 -112 -113 -118 0
-79 -80 -82 -84 -106 -108 -110 -112 -114 -119 0
-79 -80 -83 -84 -106 -109 -110 -113 -114 -120 0
-79 -81 -82 -83 -107 -108 -109 -115 -116 -118 0
-79 -81 -82 -84 -107 -108 -110 -115 -117 -119 0
-79 -81 -83 -84 -107 -109 -110 -116 -117 -120 0
-79 -82 -83 -84 -108 -109 -110 -118 -119 -120 0
-80 -81 -82 -83 -111 -112 -113 -115 -116 -118 0
-80 -81 -82 -84 -111 -112 -114 -115 -117 -119 0
-80 -81 -83 -84 -111 -113 -114 -116 -117 -120 0
-80 -82 -83 -84 -112 -113 -114 -118 -119 -120 0
-81 -82 -83 -84 -115 -116 -117 -118 -119 -120 0
-85 -86 -87 -88 -93 -94 -95 -100 -101 -106 0
-85 -86 -87 -89 -93 -94 -96 -100 -102 -107 0
-85 -86 -87 -90 -93 -94 -97 -100 -103 -108 0
-85 -86 -87 -91 -93 -94 -98 -100 -104 -109 0
-85 -86 -87 -92 -93 -94 -99 -100 -105 -110 0
-85 -86 -88 -89 -93 -95 -96 -101 -102 -111 0
-85 -86 -88 -90 -93 -95 -97 -101 -103 -112 0
-85 -86 -88 -91 -93 -95 -98 -101 -104 -113 0
-85 -86 -88 -92 -93 -95 -99 -101 -105 -114 0
-85 -86 -89 -90 -93 -96 -97 -102 -103 -115 0
-85 -86 -89 -91 -93 -96 -98 -102 -104 -116 0
-85 -86 -89 -92 -93 -96 -99 -102 -105 -117 0
-85 -86 -90 -91 -93 -97 -98 -103 -104 -118 0
-85 -86 -90 -92 -93 -97 -99 -103 -105 -119 0
-85 -86 -91 -92 -93 -98 -99 -104 -105 -120 0
-85 -87 -88 -89 -94 -95 -96 -106 -107 -111 0
-85 -87 -88 -90 -94 -95 -97 -106 -108 -112 0
-85 -87 -88 -91 -94 -95 -98 -106 -109 -113 0
-85 -87 -88 -92 -94 -95 -99 -106 -110 -114 0
-85 -87 -89 -90 -94 -96 -97 -107 -108 -115 0
-85 -87 -89 -91 -94 -96 -98 -107 -109 -116 0
-85 -87 -89 -92 -94 -96 -99 -107 -110 -117 0
-85 -87 -90 -91 -94 -97 -98 -108 -109 -118 0
-85 -87 -90 -92 -94 -97 -99 -108 -110 -119 0
-85 -87 -91 -92 -94 -98 -99 -109 -110 -120 0
-85 -88 -89 -90 -95 -96 -97 -111 -112 -115 0
-85 -88 -89 -91 -95 -96 -98 -111 -113 -116 0
-85 -88 -89 -92 -95 -96 -99 -111 -114 -117 0
-85 -88 -90 -91 -95 -97 -98 -112 -113 -118 0
-85 -88 -90 -92 -95 -97 -99 -112 -114 -119 0
-85 -88 -91 -92 -95 -98 -99 -113 -114 -120 0
-85 -89 -90 -91 -96 -97 -98 -115 -116 -118 0
-85 -89 -90 -92 -96 -97 -99 -115 -117 -119 0
-85 -89 -91 -92 -96 -98 -99 -116 -117 -120 0
-85 -90 -91 -92 -97 -98 -99 -118 -119 -120 0
-86 -87 -88 -89 -100 -101 -102 -106 -107 -111 0
-86 -87 -88 -90 -100 -101 -103 -106 -108 -112 0
-86 -87 -88 -91 -100 -101 -104 -106 -109 -113 0
-86 -87 -88 -92 -100 -101 -105 -106 -110 -114 0
-86 -87 -89 -90 -100 -102 -103 -107 -108 -115 0
-86 -87 -89 -91 -100 -102 -104 -107 -109 -116 0
-86 -87 -89 -92 -100 -102 -105 -107 -110 -117 0
-86 -87 -90 -91 -100 -103 -104 -108 -109 -118 0
-86 -87 -90 -92 -100 -103 -105 -108 -110 -119 0
-86 -87 -91 -92 -100 -104 -105 -109 -110 -120 0
-86 -88 -89 -90 -101 -102 -103 -111 -112 -115 0
-86 -88 -89 -91 -101 -102 -104 -111 -113 -116 0
-86 -88 -89 -92 -101 -102 -105 -111 -114 -117 0
-86 -88 -90 -91 -101 -103 -104 -112 -113 -118 0
-86 -88 -90 -92 -101 -103 -105 -112 -114 -119 0
-86 -88 -91 -92 -101 -104 -105 -113 -114 -120 0
-86 -89 -90 -91 -102 -103 -104 -115 -116 -118 0
-86 -89 -90 -92 -102 -103 -105 -115 -117 -119 0
-86 -89 -91 -92 -102 -104 -105 -116 -117 -120 0
-86 -90 -91 -92 -103 -104 -105 -118 -119 -120 0
-87 -88 -89 -90 -106 -107 -108 -111 -112 -115 0
-87 -88 -89 -91 -106 -107 -109 -111 -113 -116 0
-87 -88 -89 -92 -106 -107 -110 -111 -114 -117 0
-87 -88 -90 -91 -106 -108 -109 -112 -113 -118 0
-87 -88 -90 -92 -106 -108 -110 -112 -114 -119 0
-87 -88 -91 -92 -106 -109 -110 -113 -114 -120 0
-87 -89 -90 -91 -107 -108 -109 -115 -116 -118 0
-87 -89 -90 -92 -107 -108 -110 -115 -117 -119 0
-87 -89 -91 -92 -107 -109 -110 -116 -117 -120 0
-87 -90 -91 -92 -108 -109 -110 -118 -119 -120 0
-88 -89 -90 -91 -111 -112 -113 -115 -116 -118 0
-88 -89 -90 -92 -111 -112 -114 -115 -117 -119 0
-88 -89 -91 -92 -111 -113 -114 -116 -117 -120 0
-88 -90 -91 -92 -112 -113 -114 -118 -119 -120 0
-89 -90 -91 -92 -115 -116 -117 -118 -119 -120 0
-93 -94 -95 -96 -100 -101 -102 -106 -107 -111 0
-93 -94 -95 -97 -100 -101 -103 -106 -108 -112 0
-93 -94 -95 -98 -100 -101 -104 -106 -109 -113 0
-93 -94 -95 -99 -100 -101 -105 -106 -110 -114 0
-93 -94 -96 -97 -100 -102 -103 -107 -108 -115 0
-93 -94 -96 -98 -100 -102 -104 -107 -109 -116 0
-93 -94 -96 -99 -100 -102 -105 -107 -110 -117 0
-93 -94 -97 -98 -100 -103 -104 -108 -109 -118 0
-93 -94 -97 -99 -100 -103 -105 -108 -110 -119 0
-93 -94 -98 -99 -100 -104 -105 -109 -110 -120 0
-93 -95 -96 -97 -101 -102 -103 -111 -112 -115 0
-93 -95 -96 -98 -101 -102 -104 -111 -113 -116 0
-93 -95 -96 -99 -101 -102 -105 -111 -114 -117 0
-93 -95 -97 -98 -101 -103 -104 -112 -113 -118 0
-93 -95 -97 -99 -101 -103 -105 -112 -114 -119 0
-93 -95 -98 -99 -101 -104 -105 -113 -114 -120 0
-93 -96 -97 -98 -102 -103 -104 -115 -116 -118 0
-93 -96 -97 -99 -102 -103 -105 -115 -117 -119 0
-93 -96 -98 -99 -102 -104 -105 -116 -117 -120 0
-93 -97 -98 -99 -103 -104 -105 -118 -119 -120 0
-94 -95 -96 -97 -106 -107 -108 -111 -112 -115 0
-94 -95 -96 -98 -106 -107 -109 -111 -113 -116 0
-94 -95 -96 -99 -106 -107 -110 -111 -114 -117 0
-94 -95 -97 -98 -106 -108 -109 -112 -113 -118 0
-94 -95 -97 -99 -106 -108 -110 -112 -114 -119 0
-94 -95 -98 -99 -106 -109 -110 -113 -114 -120 0
-94 -96 -97 -98 -107 -108 -109 -115 -116 -118 0
-94 -96 -97 -99 -107 -108 -110 -115 -117 -119 0
-94 -96 -98 -99 -107 -109 -110 -116 -117 -120 0
-94 -97 -98 -99 -108 -109 -110 -118 -119 -120 0
-95 -96 -97 -98 -111 -112 -113 -115 -116 -118 0
-95 -96 -97 -99 -111 -112 -114 -115 -117 -119 0
-95 -96 -98 -99 -111 -113 -114 -116 -117 -120 0
-95 -97 -98 -99 -112 -113 -114 -118 -119 -120 0
-96 -97 -98 -99 -115 -116 -117 -118 -119 -120 0
-100 -101 -102 -103 -106 -107 -108 -111 -112 -115 0
-100 -101 -102 -104 -106 -107 -109 -111 -113 -116 0
-100 -101 -102 -105 -106 -107 -110 -111 -114 -117 0
-100 -101 -103 -104 -106 -108 -109 -112 -113 -118 0
-100 -101 -103 -105 -106 -108 -110 -112 -114 -119 0
-100 -101 -104 -105 -106 -109 -110 -113 -114 -120 0
-100 -102 -103 -104 -107 -108 -109 -115 -116 -118 0
-100 -102 -103 -105 -107 -108 -110 -115 -117 -119 0
-100 -102 -104 -105 -107 -109 -110 -116 -117 -120 0
-100 -103 -104 -105 -108 -109 -110 -118 -119 -120 0
-101 -102 -103 -104 -111 -112 -113 -115 -116 -118 0
-101 -102 -103 -105 -111 -112 -114 -115 -117 -119 0
-101 -102 -104 -105 -111 -113 -114 -116 -117 -120 0
-101 -103 -104 -105 -112 -113 -114 -118 -119 -120 0
-102 -103 -104 -105 -115 -116 -117 -118 -119 -120 0
-106 -107 -108 -109 -111 -112 -113 -115 -116 -118 0
-106 -107 -108 -110 -111 -112 -114 -115 -117 -119 0
-106 -107 -109 -110 -111 -113 -114 -116 -117 -120 0
-106 -108 -109 -110 -112 -113 -114 -118 -119 -120 0
-107 -108 -109 -110 -115 -116 -117 -118 -119 -120 0
-111 -112 -113 -114 -115 -116 -117 -118 -119 -120 0
1 2 3 4 16 17 18 30 31 43 0
1 2 3 5 16 17 19 30 32 44 0
1 2 3 6 16 17 20 30 33 45 0
1 2 3 7 16 17 21 30 34 46 0
1 2 3 8 16 17 22 30 35 47 0
1 2 3 9 16 17 23 30 36 48 0
1 2 3 10 16 17 24 30 37 49 0
1 2 3 11 16 17 25 30 38 50 0
1 2 3 12 16 17 26 30 39 51 0
1 2 3 13 16 17 27 30 40 52 0
1 2 3 14 16 17 28 30 41 53 0
1 2 3 15 16 17 29 30 42 54 0
1 2 4 5 16 18 19 31 32 55 0
1 2 4 6 16 18 20 31 33 56 0
1 2 4 7 16 18 21 31 34 57 0
1 2 4 8 16 18 22 31 35 58 0
1 2 4 9 16 18 23 31 36 59 0
1 2 4 10 16 18 24 31 37 60 0
1 2 4 11 16 18 25 31 38 61 0
1 2 4 12 16 18 26 31 39 62 0
1 2 4 13 16 18 27 31 40 63 0
1 2 4 14 16 18 28 31 41 64 0
1 2 4 15 16 18 29 31 42 65 0
1 2 5 6 16 19 20 32 33 66 0
1 2 5 7 16 19 21 32 34 67 0
1 2 5 8 16 19 22 32 35 68 0
1 2 5 9 16 19 23 32 36 69 0
1 2 5 10 16 19 24 32 37 70 0
1 2 5 11 16 19 25 32 38 71 0
1 2 5 12 16 19 26 32 39 72 0
1 2 5 13 16 19 27 32 40 73 0
1 2 5 14 16 19 28 32 41 74 0
1 2 5 15 16 19 29 32 42 75 0
1 2 6 7 16 20 21 33 34 76 0
1 2 6 8 16 20 22 33 35 77 0
1 2 6 9 16 20 23 33 36 78 0
1 2 6 10 16 20 24 33 37 79 0
1 2 6 11 16 20 25 33 38 80 0
1 2 6 12 16 20 26 33 39 81 0
1 2 6 13 16 20 27 33 40 82 0
1 2 6 14 16 20 28 33 41 83 0
1 2 6 15 16 20 29 33 42 84 0
1 2 7 8 16 21 22 34 35 85 0
1 2 7 9 16 21 23 34 36 86 0
1 2 7 10 16 21 24 34 37 87 0
1 2 7 11 16 21 25 34 38 88 0
1 2 7 12 16 21 26 34 39 89 0
1 2 7 13 16 21 27 34 40 90 0
1 2 7 14 16 21 28 34 41 91 0
1 2 7 15 16 21 29 34 42 92 0
1 2 8 9 16 22 23 35 36 93 0
1 2 8 10 16 22 24 35 37 94 0
1 2 8 11 16 22 25 35 38 95 0
1 2 8 12 16 22 26 35 39 96 0
1 2 8 13 16 22 27 35 40 97 0
1 2 8 14 16 22 28 35 41 98 0
1 2 8 15 16 22 29 35 42 99 0
1 2 9 10 16 23 24 36 37 100 0
1 2 9 11 16 23 25 36 38 101 0
1 2 9 12 16 23 26 36 39 102 0
1 2 9 13 16 23 27 36 40 103 0
1 2 9 14 16 23 28 36 41 104 0
1 2 9 15 16 23 29 36 42 105 0
1 2 10 11 16 24 25 37 38 106 0
1 2 10 12 16 24 26 37 39 107 0
1 2 10 13 16 24 27 37 40 108 0
1 2 10 14 16 24 28 37 41 109 0
1 2 10 15 16 24 29 37 42 110 0
1 2 11 12 16 25 26 38 39 111 0
1 2 11 13 16 25 27 38 40 112 0
1 2 11 14 16 25 28 38 41 113 0
1 2 11 15 16 25 29 38 42 114 0
1 2 12 13 16 26 27 39 40 115 0
1 2 12 14 16 26 28 39 41 116 0
1 2 12 15 16 26 29 39 42 117 0
1 2 13 14 16 27 28 40 41 118 0
1 2 13 15 16 27 29 40 42 119 0
1 2 14 15 16 28 29 41 42 120 0
1 3 4 5 17 18 19 43 44 55 0
1 3 4 6 17 18 20 43 45 56 0
1 3 4 7 17 18 21 43 46 57 0
1 3 4 8 17 18 22 43 47 58 0
1 3 4 9 17 18 23 43 48 59 0
1 3 4 10 17 18 24 43 49 60 0
1 3 4 11 17 18 25 43 50 61 0
1 3 4 12 17 18 26 43 51 62 0
1 3 4 13 17 18 27 43 52 63 0
1 3 4 14 17 18 28 43 53 64 0
1 3 4 15 17 18 29 43 54 65 0
1 3 5 6 17 19 20 44 45 66 0
1 3 5 7 17 19 21 44 46 67 0
1 3 5 8 17 19 22 44 47 68 0
1 3 5 9 17 19 23 44 48 69 0
1 3 5 10 17 19 24 44 49 70 0
1 3 5 11 17 19 25 44 50 71 0
1 3 5 12 17 19 26 44 51 72 0
1 3 5 13 17 19 27 44 52 73 0
1 3 5 14 17 19 28 44 53 74 0
1 3 5 15 17 19 29 44 54 75 0
1 3 6 7 17 20 21 45 46 76 0
1 3 6 8 17 20 22 45 47 77 0
1 3 6 9 17 20 23 45 48 78 0
1 3 6 10 17 20 24 45 49 79 0
1 3 6 11 17 20 25 45 50 80 0
1 3 6 12 17 20 26 45 51 81 0
1 3 6 13 17 20 27 45 52 82 0
1 3 6 14 17 20 28 45 53 83 0
1 3 6 15 17 20 29 45 54 84 0
1 3 7 8 17 21 22 46 47 85 0
1 3 7 9 17 21 23 46 48 86 0
1 3 7 10 17 21 24 46 49 87 0
1 3 7 11 17 21 25 46 50 88 0
1 3 7 12 17 21 26 46 51 89 0
1 3 7 13 17 21 27 46 52 90 0
1 3 7 14 17 21 28 46 53 91 0
1 3 7 15 17 21 29 46 54 92 0
1 3 8 9 17 22 23 47 48 93 0
1 3 8 10 17 22 24 47 49 94 0
1 3 8 11 17 22 25 47 50 95 0
1 3 8 12 17 22 26 47 51 96 0
1 3 8 13 17 22 27 47 52 97 0
1 3 8 14 17 22 28 47 53 98 0
1 3 8 15 17 22 29 47 54 99 0
1 3 9 10 17 23 24 48 49 100 0
1 3 9 11 17 23 25 48 50 101 0
1 3 9 12 17 23 26 48 51 102 0
1 3 9 13 17 23 27 48 52 103 0
1 3 9 14 17 23 28 48 53 104 0
1 3 9 15 17 23 29 48 54 105 0
1 3 10 11 17 24 25 49 50 106 0
1 3 10 12 17 24 26 49 51 107 0
1 3 10 13 17 24 27 49 52 108 0
1 3 10 14 17 24 28 49 53 109 0
1 3 10 15 17 24 29 49 54 110 0
1 3 11 12 17 25 26 50 51 111 0
1 3 11 13 17 25 27 50 52 112 0
1 3 11 14 17 25 28 50 53 113 0
1 3 11 15 17 25 29 50 54 114 0
1 3 12 13 17 26 27 51 52 115 0
1 3 12 14 17 26 28 51 53 116 0
1 3 12 15 17 26 29 51 54 117 0
1 3 13 14 17 27 28 52 53 118 0
1 3 13 15 17 27 29 52 54 119 0
1 3 14 15 17 28 29 53 54 120 0
1 4 5 6 18 19 20 55 56 66 0
1 4 5 7 18 19 21 55 57 67 0
1 4 5 8 18 19 22 55 58 68 0
1 4 5 9 18 19 23 55 59 69 0
1 4 5 10 18 19 24 55 60 70 0
1 4 5 11 18 19 25 55 61 71 0
1 4 5 12 18 19 26 55 62 72 0
1 4 5 13 18 19 27 55 63 73 0
1 4 5 14 18 19 28 55 64 74 0
1 4 5 15 18 19 29 55 65 75 0
1 4 6 7 18 20 21 56 57 76 0
1 4 6 8 18 20 22 56 58 77 0
1 4 6 9 18 20 23 56 59 78 0
1 4 6 10 18 20 24 56 60 79 0
1 4 6 11 18 20 25 56 61 80 0
1 4 6 12 18 20 26 56 62 81 0
1 4 6 13 18 20 27 56 63 82 0
1 4 6 14 18 20 28 56 64 83 0
1 4 6 15 18 20 29 56 65 84 0
1 4 7 8 18 21 22 57 58 85 0
1 4 7 9 18 21 23 57 59 86 0
1 4 7 10 18 21 24 57 60 87 0
1 4 7 11 18 21 25 57 61 88 0
1 4 7 12 18 21 26 57 62 89 0
1 4 7 13 18 21 27 57 63 90 0
1 4 7 14 18 21 28 57 64 91 0
1 4 7 15 18 21 29 57 65 92 0
1 4 8 9 18 22 23 58 59 93 0
1 4 8 10 18 22 24 58 60 94 0
1 4 8 11 18 22 25 58 61 95 0
1 4 8 12 18 22 26 58 62 96 0
1 4 8 13 18 22 27 58 63 97 0
1 4 8 14 18 22 28 58 64 98 0
1 4 8 15 18 22 29 58 65 99 0
1 4 9 10 18 23 24 59 60 100 0
1 4 9 11 18 23 25 59 61 101 0
1 4 9 12 18 23 26 59 62 102 0
1 4 9 13 18 23 27 59 63 103 0
1 4 9 14 18 23 28 59 64 104 0
1 4 9 15 18 23 29 59 65 105 0
1 4 10 11 18 24 25 60 61 106 0
1 4 10 12 18 24 26 60 62 107 0
1 4 10 13 18 24 27 60 63 108 0
1 4 10 14 18 24 28 60 64 109 0
1 4 10 15 18 24 29 60 65 110 0
1 4 11 12 18 25 26 61 62 111 0
1 4 11 13 18 25 27 61 63 112 0
1 4 11 14 18 25 28 61 64 113 0
1 4 11 15 18 25 29 61 65 114 0
1 4 12 13 18 26 27 62 63 115 0
1 4 12 14 18 26 28 62 64 116 0
1 4 12 15 18 26 29 62 65 117 0
1 4 13 14 18 27 28 63 64 118 0
1 4 13 15 18 27 29 63 65 119 0
1 4 14 15 18 28 29 64 65 120 0
1 5 6 7 19 20 21 66 67 76 0
1 5 6 8 19 20 22 66 68 77 0
1 5 6 9 19 20 23 66 69 78 0
1 5 6 10 19 20 24 66 70 79 0
1 5 6 11 19 20 25 66 71 80 0
1 5 6 12 19 20 26 66 72 81 0
1 5 6 13 19 20 27 66 73 82 0
1 5 6 14 19 20 28 66 74 83 0
1 5 6 15 19 20 29 66 75 84 0
1 5 7 8 19 21 22 67 68 85 0
1 5 7 9 19 21 23 67 69 86 0
1 5 7 10 19 21 24 67 70 87 0
1 5 7 11 19 21 25 67 71 88 0
1 5 7 12 19 21 26 67 72 89 0
1 5 7 13 19 21 27 67 73 90 0
1 5 7 14 19 21 28 67 74 91 0
1 5 7 15 19 21 29 67 75 92 0
1 5 8 9 19 22 23 68 69 93 0
1 5 8 10 19 22 24 68 70 94 0
1 5 8 11 19 22 25 68 71 95 0
1 5 8 12 19 22 26 68 72 96 0
1 5 8 13 19 22 27 68 73 97 0
1 5 8 14 19 22 28 68 74 98 0
1 5 8 15 19 22 29 68 75 99 0
1 5 9 10 19 23 24 69 70 100 0
1 5 9 11 19 23 25 69 71 101 0
1 5 9 12 19 23 26 69 72 102 0
1 5 9 13 19 23 27 69 73 103 0
1 5 9 14 19 23 28 69 74 104 0
1 5 9 15 19 23 29 69 75 105 0
1 5 10 11 19 24 25 70 71 106 0
1 5 10 12 19 24 26 70 72 107 0
1 5 10 13 19 24 27 70 73 108 0
1 5 10 14 19 24 28 70 74 109 0
1 5 10 15 19 24 29 70 75 110 0
1 5 11 12 19 25 26 71 72 111 0
1 5 11 13 19 25 27 71 73 112 0
1 5 11 14 19 25 28 71 74 113 0
1 5 11 15 19 25 29 71 75 114 0
1 5 12 13 19 26 27 72 73 115 0
1 5 12 14 19 26 28 72 74 116 0
1 5 12 15 19 26 29 72 75 117 0
1 5 13 14 19 27 28 73 74 118 0
1 5 13 15 19 27 29 73 75 119 0
1 5 14 15 19 28 29 74 75 120 0
1 6 7 8 20 21 22 76 77 85 0
1 6 7 9 20 21 23 76 78 86 0
1 6 7 10 20 21 24 76 79 87 0
1 6 7 11 20 21 25 76 80 88 0
1 6 7 12 20 21 26 76 81 89 0
1 6 7 13 20 21 27 76 82 90 0
1 6 7 14 20 21 28 76 83 91 0
1 6 7 15 20 21 29 76 84 92 0
1 6 8 9 20 22 23 77 78 93 0
1 6 8 10 20 22 24 77 79 94 0
1 6 8 11 20 22 25 77 80 95 0
1 6 8 12 20 22 26 77 81 96 0
1 6 8 13 20 22 27 77 82 97 0
1 6 8 14 20 22 28 77 83 98 0
1 6 8 15 20 22 29 77 84 99 0
1 6 9 10 20 23 24 78 79 100 0
1 6 9 11 20 23 25 78 80 101 0
1 6 9 12 20 23 26 78 81 102 0
1 6 9 13 20 23 27 78 82 103 0
1 6 9 14 20 23 28 78 83 104 0
1 6 9 15 20 23 29 78 84 105 0
1 6 10 11 20 24 25 79 80 106 0
1 6 10 12 20 24 26 79 81 107 0
1 6 10 13 20 24 27 79 82 108 0
1 6 10 14 20 24 28 79 83 109 0
1 6 10 15 20 24 29 79 84 110 0
1 6 11 12 20 25 26 80 81 111 0
1 6 11 13 20 25 27 80 82 112 0
1 6 11 14 20 25 28 80 83 113 0
1 6 11 15 20 25 29 80 84 114 0
1 6 12 13 20 26 27 81 82 115 0
1 6 12 14 20 26 28 81 83 116 0
1 6 12 15 20 26 29 81 84 117 0
1 6 13 14 20 27 28 82 83 118 0
1 6 13 15 20 27 29 82 84 119 0
1 6 14 15 20 28 29 83 84 120 0
1 7 8 9 21 22 23 85 86 93 0
1 7 8 10 21 22 24 85 87 94 0
1 7 8 11 21 22 25 85 88 95 0
1 7 8 12 21 22 26 85 89 96 0
1 7 8 13 21 22 27 85 90 97 0
1 7 8 14 21 22 28 85 91 98 0
1 7 8 15 21 22 29 85 92 99 0
1 7 9 10 21 23 24 86 87 100 0
1 7 9 11 21 23 25 86 88 101 0
1 7 9 12 21 23 26 86 89 102 0
1 7 9 13 21 23 27 86 90 103 0
1 7 9 14 21 23 28 86 91 104 0
1 7 9 15 21 23 29 86 92 105 0
1 7 10 11 21 24 25 87 88 106 0
1 7 10 12 21 24 26 87 89 107 0
1 7 10 13 21 24 27 87 90 108 0
1 7 10 14 21 24 28 87 91 109 0
1 7 10 15 21 24 29 87 92 110 0
1 7 11 12 21 25 26 88 89 111 0
1 7 11 13 21 25 27 88 90 112 0
1 7 11 14 21 25 28 88 91 113 0
1 7 11 15 21 25 29 88 92 114 0
1 7 12 13 21 26 27 89 90 115 0
1 7 12 14 21 26 28 89 91 116 0
1 7 12 15 21 26 29 89 92 117 0
1 7 13 14 21 27 28 90 91 118 0
1 7 13 15 21 27 29 90 92 119 0
1 7 14 15 21 28 29 91 92 120 0
1 8 9 10 22 23 24 93 94 100 0
1 8 9 11 22 23 25 93 95 101 0
1 8 9 12 22 23 26 93 96 102 0
1 8 9 13 22 23 27 93 97 103 0
1 8 9 14 22 23 28 93 98 104 0
1 8 9 15 22 23 29 93 99 105 0
1 8 10 11 22 24 25 94 95 106 0
1 8 10 12 22 24 26 94 96 107 0
1 8 10 13 22 24 27 94 97 108 0
1 8 10 14 22 24 28 94 98 109 0
1 8 10 15 22 24 29 94 99 110 0
1 8 11 12 22 25 26 95 96 111 0
1 8 11 13 22 25 27 95 97 112 0
1 8 11 14 22 25 28 95 98 113 0
1 8 11 15 22 25 29 95 99 114 0
1 8 12 13 22 26 27 96 97 115 0
1 8 12 14 22 26 28 96 98 116 0
1 8 12 15 22 26 29 96 99 117 0
1 8 13 14 22 27 28 97 98 118 0
1 8 13 15 22 27 29 97 99 119 0
1 8 14 15 22 28 29 98 99 120 0
1 9 10 11 23 24 25 100 101 106 0
1 9 10 12 23 24 26 100 102 107 0
1 9 10 13 23 24 27 100 103 108 0
1 9 10 14 23 24 28 100 104 109 0
1 9 10 15 23 24 29 100 105 110 0
1 9 11 12 23 25 26 101 102 111 0
1 9 11 13 23 25 27 101 103 112 0
1 9 11 14 23 25 28 101 104 113 0
1 9 11 15 23 25 29 101 105 114 0
1 9 12 13 23 26 27 102 103 115 0
1 9 12 14 23 26 28 102 104 116 0
1 9 12 15 23 26 29 102 105 117 0
1 9 13 14 23 27 28 103 104 118 0
1 9 13 15 23 27 29 103 105 119 0
1 9 14 15 23 28 29 104 105 120 0
1 10 11 12 24 25 26 106 107 111 0
1 10 11 13 24 25 27 106 108 112 0
1 10 11 14 24 25 28 106 109 113 0
1 10 11 15 24 25 29 106 110 114 0
1 10 12 13 24 26 27 107 108 115 0
1 10 12 14 24 26 28 107 109 116 0
1 10 12 15 24 26 29 107 110 117 0
1 10 13 14 24 27 28 108 109 118 0
1 10 13 15 24 27 29 108 110 119 0
1 10 14 15 24 28 29 109 110 120 0
1 11 12 13 25 26 27 111 112 115 0
1 11 12 14 25 26 28 111 113 116 0
1 11 12 15 25 26 29 111 114 117 0
1 11 13 14 25 27 28 112 113 118 0
1 11 13 15 25 27 29 112 114 119 0
1 11 14 15 25 28 29 113 114 120 0
1 12 13 14 26 27 28 115 116 118 0
1 12 13 15 26 27 29 115 117 119 0
1 12 14 15 26 28 29 116 117 120 0
1 13 14 15 27 28 29 118 119 120 0
2 3 4 5 30 31 32 43 44 55 0
2 3 4 6 30 31 33 43 45 56 0
2 3 4 7 30 31 34 43 46 57 0
2 3 4 8 30 31 35 43 47 58 0
2 3 4 9 30 31 36 43 48 59 0
2 3 4 10 30 31 37 43 49 60 0
2 3 4 11 30 31 38 43 50 61 0
2 3 4 12 30 31 39 43 51 62 0
2 3 4 13 30 31 40 43 52 63 0
2 3 4 14 30 31 41 43 53 64 0
2 3 4 15 30 31 42 43 54 65 0
2 3 5 6 30 32 33 44 45 66 0
2 3 5 7 30 32 34 44 46 67 0
2 3 5 8 30 32 35 44 47 68 0
2 3 5 9 30 32 36 44 48 69 0
2 3 5 10 30 32 37 44 49 70 0
2 3 5 11 30 32 38 44 50 71 0
2 3 5 12 30 32 39 44 51 72 0
2 3 5 13 30 32 40 44 52 73 0
2 3 5 14 30 32 41 44 53 74 0
2 3 5 15 30 32 42 44 54 75 0
2 3 6 7 30 33 34 45 46 76 0
2 3 6 8 30 33 35 45 47 77 0
2 3 6 9 30 33 36 45 48 78 0
2 3 6 10 30 33 37 45 49 79 0
2 3 6 11 30 33 38 45 50 80 0
2 3 6 12 30 33 39 45 51 81 0
2 3 6 13 30 33 40 45 52 82 0
2 3 6 14 30 33 41 45 53 83 0
2 3 6 15 30 33 42 45 54 84 0
2 3 7 8 30 34 35 46 47 85 0
2 3 7 9 30 34 36 46 48 86 0
2 3 7 10 30 34 37 46 49 87 0
2 3 7 11 30 34 38 46 50 88 0
2 3 7 12 30 34 39 46 51 89 0
2 3 7 13 30 34 40 46 52 90 0
2 3 7 14 30 34 41 46 53 91 0
2 3 7 15 30 34 42 46 54 92 0
2 3 8 9 30 35 36 47 48 93 0
2 3 8 10 30 35 37 47 49 94 0
2 3 8 11 30 35 38 47 50 95 0
2 3 8 12 30 35 39 47 51 96 0
2 3 8 13 30 35 40 47 52 97 0
2 3 8 14 30 35 41 47 53 98 0
2 3 8 15 30 35 42 47 54 99 0
2 3 9 10 30 36 37 48 49 100 0
2 3 9 11 30 36 38 48 50 101 0
2 3 9 12 30 36 39 48 51 102 0
2 3 9 13 30 36 40 48 52 103 0
2 3 9 14 30 36 41 48 53 104 0
2 3 9 15 30 36 42 48 54 105 0
2 3 10 11 30 37 38 49 50 106 0
2 3 10 12 30 37 39 49 51 107 0
2 3 10 13 30 37 40 49 52 108 0
2 3 10 14 30 37 41 49 53 109 0
2 3 10 15 30 37 42 49 54 110 0
2 3 11 12 30 38 39 50 51 111 0
2 3 11 13 30 38 40 50 52 112 0
2 3 11 14 30 38 41 50 53 113 0
2 3 11 15 30 38 42 50 54 114 0
2 3 12 13 30 39 40 51 52 115 0
2 3 12 14 30 39 41 51 53 116 0
2 3 12 15 30 39 42 51 54 117 0
2 3 13 14 30 40 41 52 53 118 0
2 3 13 15 30 40 42 52 54 119 0
2 3 14 15 30 41 42 53 54 120 0
2 4 5 6 31 32 33 55 56 66 0
2 4 5 7 31 32 34 55 57 67 0
2 4 5 8 31 32 35 55 58 68 0
2 4 5 9 31 32 36 55 59 69 0
2 4 5 10 31 32 37 55 60 70 0
2 4 5 11 31 32 38 55 61 71 0
2 4 5 12 31 32 39 55 62 72 0
2 4 5 13 31 32 40 55 63 73 0
2 4 5 14 31 32 41 55 64 74 0
2 4 5 15 31 32 42 55 65 75 0
2 4 6 7 31 33 34 56 57 76 0
2 4 6 8 31 33 35 56 58 77 0
2 4 6 9 31 33 36 56 59 78 0
2 4 6 10 31 33 37 56 60 79 0
2 4 6 11 31 33 38 56 61 80 0
2 4 6 12 31 33 39 56 62 81 0
2 4 6 13 31 33 40 56 63 82 0
2 4 6 14 31 33 41 56 64 83 0
2 4 6 15 31 33 42 56 65 84 0
2 4 7 8 31 34 35 57 58 85 0
2 4 7 9 31 34 36 57 59 86 0
2 4 7 10 31 34 37 57 60 87 0
2 4 7 11 31 34 38 57 61 88 0
2 4 7 12 31 34 39 57 62 89 0
2 4 7 13 31 34 40 57 63 90 0
2 4 7 14 31 34 41 57 64 91 0
2 4 7 15 31 34 42 57 65 92 0
2 4 8 9 31 35 36 58 59 93 0
2 4 8 10 31 35 37 58 60 94 0
2 4 8 11 31 35 38 58 61 95 0
2 4 8 12 31 35 39 58 62 96 0
2 4 8 13 31 35 40 58 63 97 0
2 4 8 14 31 35 41 58 64 98 0
2 4 8 15 31 35 42 58 65 99 0
2 4 9 10 31 36 37 59 60 100 0
2 4 9 11 31 36 38 59 61 101 0
2 4 9 12 31 36 39 59 62 102 0
2 4 9 13 31 36 40 59 63 103 0
2 4 9 14 31 36 41 59 64 104 0
2 4 9 15 31 36 42 59 65 105 0
2 4 10 11 31 37 38 60 61 106 0
2 4 10 12 31 37 39 60 62 107 0
2 4 10 13 31 37 40 60 63 108 0
2 4 10 14 31 37 41 60 64 109 0
2 4 10 15 31 37 42 60 65 110 0
2 4 11 12 31 38 39 61 62 111 0
2 4 11 13 31 38 40 61 63 112 0
2 4 11 14 31 38 41 61 64 113 0
2 4 11 15 31 38 42 61 65 114 0
2 4 12 13 31 39 40 62 63 115 0
2 4 12 14 31 39 41 62 64 116 0
2 4 12 15 31 39 42 62 65 117 0
2 4 13 14 31 40 41 63 64 118 0
2 4 13 15 31 40 42 63 65 119 0
2 4 14 15 31 41 42 64 65 120 0
2 5 6 7 32 33 34 66 67 76 0
2 5 6 8 32 33 35 66 68 77 0
2 5 6 9 32 33 36 66 69 78 0
2 5 6 10 32 33 37 66 70 79 0
2 5 6 11 32 33 38 66 71 80 0
2 5 6 12 32 33 39 66 72 81 0
2 5 6 13 32 33 40 66 73 82 0
2 5 6 14 32 33 41 66 74 83 0
2 5 6 15 32 33 42 66 75 84 0
2 5 7 8 32 34 35 67 68 85 0
2 5 7 9 32 34 36 67 69 86 0
2 5 7 10 32 34 37 67 70 87 0
2 5 7 11 32 34 38 67 71 88 0
2 5 7 12 32 34 39 67 72 89 0
2 5 7 13 32 34 40 67 73 90 0
2 5 7 14 32 34 41 67 74 91 0
2 5 7 15 32 34 42 67 75 92 0
2 5 8 9 32 35 36 68 69 93 0
2 5 8 10 32 35 37 68 70 94 0
2 5 8 11 32 35 38 68 71 95 0
2 5 8 12 32 35 39 68 72 96 0
2 5 8 13 32 35 40 68 73 97 0
2 5 8 14 32 35 41 68 74 98 0
2 5 8 15 32 35 42 68 75 99 0
2 5 9 10 32 36 37 69 70 100 0
2 5 9 11 32 36 38 69 71 101 0
2 5 9 12 32 36 39 69 72 102 0
2 5 9 13 32 36 40 69 73 103 0
2 5 9 14 32 36 41 69 74 104 0
2 5 9 15 32 36 42 69 75 105 0
2 5 10 11 32 37 38 70 71 106 0
2 5 10 12 32 37 39 70 72 107 0
2 5 10 13 32 37 40 70 73 108 0
2 5 10 14 32 37 41 70 74 109 0
2 5 10 15 32 37 42 70 75 110 0
2 5 11 12 32 38 39 71 72 111 0
2 5 11 13 32 38 40 71 73 112 0
2 5 11 14 32 38 41 71 74 113 0
2 5 11 15 32 38 42 71 75 114 0
2 5 12 13 32 39 40 72 73 115 0
2 5 12 14 32 39 41 72 74 116 0
2 5 12 15 32 39 42 72 75 117 0
2 5 13 14 32 40 41 73 74 118 0
2 5 13 15 32 40 42 73 75 119 0
2 5 14 15 32 41 42 74 75 120 0
2 6 7 8 33 34 35 76 77 85 0
2 6 7 9 33 34 36 76 78 86 0
2 6 7 10 33 34 37 76 79 87 0
2 6 7 11 33 34 38 76 80 88 0
2 6 7 12 33 34 39 76 81 89 0
2 6 7 13 33 34 40 76 82 90 0
2 6 7 14 33 34 41 76 83 91 0
2 6 7 15 33 34 42 76 84 92 0
2 6 8 9 33 35 36 77 78 93 0
2 6 8 10 33 35 37 77 79 94 0
2 6 8 11 33 35 38 77 80 95 0
2 6 8 12 33 35 39 77 81 96 0
2 6 8 13 33 35 40 77 82 97 0
2 6 8 14 33 35 41 77 83 98 0
2 6 8 15 33 35 42 77 84 99 0
2 6 9 10 33 36 37 78 79 100 0
2 6 9 11 33 36 38 78 80 101 0
2 6 9 12 33 36 39 78 81 102 0
2 6 9 13 33 36 40 78 82 103 0
2 6 9 14 33 36 41 78 83 104 0
2 6 9 15 33 36 42 78 84 105 0
2 6 10 11 33 37 38 79 80 106 0
2 6 10 12 33 37 39 79 81 107 0
2 6 10 13 33 37 40 79 82 108 0
2 6 10 14 33 37 41 79 83 109 0
2 6 10 15 33 37 42 79 84 110 0
2 6 11 12 33 38 39 80 81 111 0
2 6 11 13 33 38 40 80 82 112 0
2 6 11 14 33 38 41 80 83 113 0
2 6 11 15 33 38 42 80 84 114 0
2 6 12 13 33 39 40 81 82 115 0
2 6 12 14 33 39 41 81 83 116 0
2 6 12 15 33 39 42 81 84 117 0
2 6 13 14 33 40 41 82 83 118 0
2 6 13 15 33 40 42 82 84 119 0
2 6 14 15 33 41 42 83 84 120 0
2 7 8 9 34 35 36 85 86 93 0
2 7 8 10 34 35 37 85 87 94 0
2 7 8 11 34 35 38 85 88 95 0
2 7 8 12 34 35 39 85 89 96 0
2 7 8 13 34 35 40 85 90 97 0
2 7 8 14 34 35 41 85 91 98 0
2 7 8 15 34 35 42 85 92 99 0
2 7 9 10 34 36 37 86 87 100 0
2 7 9 11 34 36 38 86 88 101 0
2 7 9 12 34 36 39 86 89 102 0
2 7 9 13 34 36 40 86 90 103 0
2 7 9 14 34 36 41 86 91 104 0
2 7 9 15 34 36 42 86 92 105 0
2 7 10 11 34 37 38 87 88 106 0
2 7 10 12 34 37 39 87 89 107 0
2 7 10 13 34 37 40 87 90 108 0
2 7 10 14 34 37 41 87 91 109 0
2 7 10 15 34 37 42 87 92 110 0
2 7 11 12 34 38 39 88 89 111 0
2 7 11 13 34 38 40 88 90 112 0
2 7 11 14 34 38 41 88 91 113 0
2 7 11 15 34 38 42 88 92 114 0
2 7 12 13 34 39 40 89 90 115 0
2 7 12 14 34 39 41 89 91 116 0
2 7 12 15 34 39 42 89 92 117 0
2 7 13 14 34 40 41 90 91 118 0
2 7 13 15 34 40 42 90 92 119 0
2 7 14 15 34 41 42 91 92 120 0
2 8 9 10 35 36 37 93 94 100 0
2 8 9 11 35 36 38 93 95 101 0
2 8 9 12 35 36 39 93 96 102 0
2 8 9 13 35 36 40 93 97 103 0
2 8 9 14 35 36 41 93 98 104 0
2 8 9 15 35 36 42 93 99 105 0
2 8 10 11 35 37 38 94 95 106 0
2 8 10 12 35 37 39 94 96 107 0
2 8 10 13 35 37 40 94 97 108 0
2 8 10 14 35 37 41 94 98 109 0
2 8 10 15 35 37 42 94 99 110 0
2 8 11 12 35 38 39 95 96 111 0
2 8 11 13 35 38 40 95 97 112 0
2 8 11 14 35 38 41 95 98 113 0
2 8 11 15 35 38 42 95 99 114 0
2 8 12 13 35 39 40 96 97 115 0
2 8 12 14 35 39 41 96 98 116 0
2 8 12 15 35 39 42 96 99 117 0
2 8 13 14 35 40 41 97 98 118 0
2 8 13 15 35 40 42 97 99 119 0
2 8 14 15 35 41 42 98 99 120 0
2 9 10 11 36 37 38 100 101 106 0
2 9 10 12 36 37 39 100 102 107 0
2 9 10 13 36 37 40 100 103 108 0
2 9 10 14 36 37 41 100 104 109 0
2 9 10 15 36 37 42 100 105 110 0
2 9 11 12 36 38 39 101 102 111 0
2 9 11 13 36 38 40 101 103 112 0
2 9 11 14 36 38 41 101 104 113 0
2 9 11 15 36 38 42 101 105 114 0
2 9 12 13 36 39 40 102 103 115 0
2 9 12 14 36 39 41 102 104 116 0
2 9 12 15 36 39 42 102 105 117 0
2 9 13 14 36 40 41 103 104 118 0
2 9 13 15 36 40 42 103 105 119 0
2 9 14 15 36 41 42 104 105 120 0
2 10 11 12 37 38 39 106 107 111 0
2 10 11 13 37 38 40 106 108 112 0
2 10 11 14 37 38 41 106 109 113 0
2 10 11 15 37 38 42 106 110 114 0
2 10 12 13 37 39 40 107 108 115 0
2 10 12 14 37 39 41 107 109 116 0
2 10 12 15 37 39 42 107 110 117 0
2 10 13 14 37 40 41 108 109 118 0
2 10 13 15 37 40 42 108 110 119 0
2 10 14 15 37 41 42 109 110 120 0
2 11 12 13 38 39 40 111 112 115 0
2 11 12 14 38 39 41 111 113 116 0
2 11 12 15 38 39 42 111 114 117 0
2 11 13 14 38 40 41 112 113 118 0
2 11 13 15 38 40 42 112 114 119 0
2 11 14 15 38 41 42 113 114 120 0
2 12 13 14 39 40 41 115 116 118 0
2 12 13 15 39 40 42 115 117 119 0
2 12 14 15 39 41 42 116 117 120 0
2 13 14 15 40 41 42 118 119 120 0
3 4 5 6 43 44 45 55 56 66 0
3 4 5 7 43 44 46 55 57 67 0
3 4 5 8 43 44 47 55 58 68 0
3 4 5 9 43 44 48 55 59 69 0
3 4 5 10 43 44 49 55 60 70 0
3 4 5 11 43 44 50 55 61 71 0
3 4 5 12 43 44 51 55 62 72 0
3 4 5 13 43 44 52 55 63 73 0
3 4 5 14 43 44 53 55 64 74 0
3 4 5 15 43 44 54 55 65 75 0
3 4 6 7 43 45 46 56 57 76 0
3 4 6 8 43 45 47 56 58 77 0
3 4 6 9 43 45 48 56 59 78 0
3 4 6 10 43 45 49 56 60 79 0
3 4 6 11 43 45 50 56 61 80 0
3 4 6 12 43 45 51 56 62 81 0
3 4 6 13 43 45 52 56 63 82 0
3 4 6 14 43 45 53 56 64 83 0
3 4 6 15 43 45 54 56 65 84 0
3 4 7 8 43 46 47 57 58 85 0
3 4 7 9 43 46 48 57 59 86 0
3 4 7 10 43 46 49 57 60 87 0
3 4 7 11 43 46 50 57 61 88 0
3 4 7 12 43 46 51 57 62 89 0
3 4 7 13 43 46 52 57 63 90 0
3 4 7 14 43 46 53 57 64 91 0
3 4 7 15 43 46 54 57 65 92 0
3 4 8 9 43 47 48 58 59 93 0
3 4 8 10 43 47 49 58 60 94 0
3 4 8 11 43 47 50 58 61 95 0
3 4 8 12 43 47 51 58 62 96 0
3 4 8 13 43 47 52 58 63 97 0
3 4 8 14 43 47 53 58 64 98 0
3 4 8 15 43 47 54 58 65 99 0
3 4 9 10 43 48 49 59 60 100 0
3 4 9 11 43 48 50 59 61 101 0
3 4 9 12 43 48 51 59 62 102 0
3 4 9 13 43 48 52 59 63 103 0
3 4 9 14 43 48 53 59 64 104 0
3 4 9 15 43 48 54 59 65 105 0
3 4 10 11 43 49 50 60 61 106 0
3 4 10 12 43 49 51 60 62 107 0
3 4 10 13 43 49 52 60 63 108 0
3 4 10 14 43 49 53 60 64 109 0
3 4 10 15 43 49 54 60 65 110 0
3 4 11 12 43 50 51 61 62 111 0
3 4 11 13 43 50 52 61 63 112 0
3 4 11 14 43 50 53 61 64 113 0
3 4 11 15 43 50 54 61 65 114 0
3 4 12 13 43 51 52 62 63 115 0
3 4 12 14 43 51 53 62 64 116 0
3 4 12 15 43 51 54 62 65 117 0
3 4 13 14 43 52 53 63 64 118 0
3 4 13 15 43 52 54 63 65 119 0
3 4 14 15 43 53 54 64 65 120 0
3 5 6 7 44 45 46 66 67 76 0
3 5 6 8 44 45 47 66 68 77 0
3 5 6 9 44 45 48 66 69 78 0
3 5 6 10 44 45 49 66 70 79 0
3 5 6 11 44 45 50 66 71 80 0
3 5 6 12 44 45 51 66 72 81 0
3 5 6 13 44 45 52 66 73 82 0
3 5 6 14 44 45 53 66 74 83 0
3 5 6 15 44 45 54 66 75 84 0
3 5 7 8 44 46 47 67 68 85 0
3 5 7 9 44 46 48 67 69 86 0
3 5 7 10 44 46 49 67 70 87 0
3 5 7 11 44 46 50 67 71 88 0
3 5 7 12 44 46 51 67 72 89 0
3 5 7 13 44 46 52 67 73 90 0
3 5 7 14 44 46 53 67 74 91 0
3 5 7 15 44 46 54 67 75 92 0
3 5 8 9 44 47 48 68 69 93 0
3 5 8 10 44 47 49 68 70 94 0
3 5 8 11 44 47 50 68 71 95 0
3 5 8 12 44 47 51 68 72 96 0
3 5 8 13 44 47 52 68 73 97 0
3 5 8 14 44 47 53 68 74 98 0
3 5 8 15 44 47 54 68 75 99 0
3 5 9 10 44 48 49 69 70 100 0
3 5 9 11 44 48 50 69 71 101 0
3 5 9 12 44 48 51 69 72 102 0
3 5 9 13 44 48 52 69 73 103 0
3 5 9 14 44 48 53 69 74 104 0
3 5 9 15 44 48 54 69 75 105 0
3 5 10 11 44 49 50 70 71 106 0
3 5 10 12 44 49 51 70 72 107 0
3 5 10 13 44 49 52 70 73 108 0
3 5 10 14 44 49 53 70 74 109 0
3 5 10 15 44 49 54 70 75 110 0
3 5 11 12 44 50 51 71 72 111 0
3 5 11 13 44 50 52 71 73 112 0
3 5 11 14 44 50 53 71 74 113 0
3 5 11 15 44 50 54 71 75 114 0
3 5 12 13 44 51 52 72 73 115 0
3 5 12 14 44 51 53 72 74 116 0
3 5 12 15 44 51 54 72 75 117 0
3 5 13 14 44 52 53 73 74 118 0
3 5 13 15 44 52 54 73 75 119 0
3 5 14 15 44 53 54 74 75 120 0
3 6 7 8 45 46 47 76 77 85 0
3 6 7 9 45 46 48 76 78 86 0
3 6 7 10 45 46 49 76 79 87 0
3 6 7 11 45 46 50 76 80 88 0
3 6 7 12 45 46 51 76 81 89 0
3 6 7 13 45 46 52 76 82 90 0
3 6 7 14 45 46 53 76 83 91 0
3 6 7 15 45 46 54 76 84 92 0
3 6 8 9 45 47 48 77 78 93 0
3 6 8 10 45 47 49 77 79 94 0
3 6 8 11 45 47 50 77 80 95 0
3 6 8 12 45 47 51 77 81 96 0
3 6 8 13 45 47 52 77 82 97 0
3 6 8 14 45 47 53 77 83 98 0
3 6 8 15 45 47 54 77 84 99 0
3 6 9 10 45 48 49 78 79 100 0
3 6 9 11 45 48 50 78 80 101 0
3 6 9 12 45 48 51 78 81 102 0
3 6 9 13 45 48 52 78 82 103 0
3 6 9 14 45 48 53 78 83 104 0
3 6 9 15 45 48 54 78 84 105 0
3 6 10 11 45 49 50 79 80 106 0
3 6 10 12 45 49 51 79 81 107 0
3 6 10 13 45 49 52 79 82 108 0
3 6 10 14 45 49 53 79 83 109 0
3 6 10 15 45 49 54 79 84 110 0
3 6 11 12 45 50 51 80 81 111 0
3 6 11 13 45 50 52 80 82 112 0
3 6 11 14 45 50 53 80 83 113 0
3 6 11 15 45 50 54 80 84 114 0
3 6 12 13 45 51 52 81 82 115 0
3 6 12 14 45 51 53 81 83 116 0
3 6 12 15 45 51 54 81 84 117 0
3 6 13 14 45 52 53 82 83 118 0
3 6 13 15 45 52 54 82 84 119 0
3 6 14 15 45 53 54 83 84 120 0
3 7 8 9 46 47 48 85 86 93 0
3 7 8 10 46 47 49 85 87 94 0
3 7 8 11 46 47 50 85 88 95 0
3 7 8 12 46 47 51 85 89 96 0
3 7 8 13 46 47 52 85 90 97 0
3 7 8 14 46 47 53 85 91 98 0
3 7 8 15 46 47 54 85 92 99 0
3 7 9 10 46 48 49 86 87 100 0
3 7 9 11 46 48 50 86 88 101 0
3 7 9 12 46 48 51 86 89 102 0
3 7 9 13 46 48 52 86 90 103 0
3 7 9 14 46 48 53 86 91 104 0
3 7 9 15 46 48 54 86 92 105 0
3 7 10 11 46 49 50 87 88 106 0
3 7 10 12 46 49 51 87 89 107 0
3 7 10 13 46 49 52 87 90 108 0
3 7 10 14 46 49 53 87 91 109 0
3 7 10 15 46 49 54 87 92 110 0
3 7 11 12 46 50 51 88 89 111 0
3 7 11 13 46 50 52 88 90 112 0
3 7 11 14 46 50 53 88 91 113 0
3 7 11 15 46 50 54 88 92 114 0
3 7 12 13 46 51 52 89 90 115 0
3 7 12 14 46 51 53 89 91 116 0
3 7 12 15 46 51 54 89 92 117 0
3 7 13 14 46 52 53 90 91 118 0
3 7 13 15 46 52 54 90 92 119 0
3 7 14 15 46 53 54 91 92 120 0
3 8 9 10 47 48 49 93 94 100 0
3 8 9 11 47 48 50 93 95 101 0
3 8 9 12 47 48 51 93 96 102 0
3 8 9 13 47 48 52 93 97 103 0
3 8 9 14 47 48 53 93 98 104 0
3 8 9 15 47 48 54 93 99 105 0
3 8 10 11 47 49 50 94 95 106 0
3 8 10 12 47 49 51 94 96 107 0
3 8 10 13 47 49 52 94 97 108 0
3 8 10 14 47 49 53 94 98 109 0
3 8 10 15 47 49 54 94 99 110 0
3 8 11 12 47 50 51 95 96 111 0
3 8 11 13 47 50 52 95 97 112 0
3 8 11 14 47 50 53 95 98 113 0
3 8 11 15 47 50 54 95 99 114 0
3 8 12 13 47 51 52 96 97 115 0
3 8 12 14 47 51 53 96 98 116 0
3 8 12 15 47 51 54 96 99 117 0
3 8 13 14 47 52 53 97 98 118 0
3 8 13 15 47 52 54 97 99 119 0
3 8 14 15 47 53 54 98 99 120 0
3 9 10 11 48 49 50 100 101 106 0
3 9 10 12 48 49 51 100 102 107 0
3 9 10 13 48 49 52 100 103 108 0
3 9 10 14 48 49 53 100 104 109 0
3 9 10 15 48 49 54 100 105 110 0
3 9 11 12 48 50 51 101 102 111 0
3 9 11 13 48 50 52 101 103 112 0
3 9 11 14 48 50 53 101 104 113 0
3 9 11 15 48 50 54 101 105 114 0
3 9 12 13 48 51 52 102 103 115 0
3 9 12 14 48 51 53 102 104 116 0
3 9 12 15 48 51 54 102 105 117 0
3 9 13 14 48 52 53 103 104 118 0
3 9 13 15 48 52 54 103 105 119 0
3 9 14 15 48 53 54 104 105 120 0
3 10 11 12 49 50 51 106 107 111 0
3 10 11 13 49 50 52 106 108 112 0
3 10 11 14 49 50 53 106 109 113 0
3 10 11 15 49 50 54 106 110 114 0
3 10 12 13 49 51 52 107 108 115 0
3 10 12 14 49 51 53 107 109 116 0
3 10 12 15 49 51 54 107 110 117 0
3 10 13 14 49 52 53 108 109 118 0
3 10 13 15 49 52 54 108 110 119 0
3 10 14 15 49 53 54 109 110 120 0
3 11 12 13 50 51 52 111 112 115 0
3 11 12 14 50 51 53 111 113 116 0
3 11 12 15 50 51 54 111 114 117 0
3 11 13 14 50 52 53 112 113 118 0
3 11 13 15 50 52 54 112 114 119 0
3 11 14 15 50 53 54 113 114 120 0
3 12 13 14 51 52 53 115 116 118 0
3 12 13 15 51 52 54 115 117 119 0
3 12 14 15 51 53 54 116 117 120 0
3 13 14 15 52 53 54 118 119 120 0
4 5 6 7 55 56 57 66 67 76 0
4 5 6 8 55 56 58 66 68 77 0
4 5 6 9 55 56 59 66 69 78 0
4 5 6 10 55 56 60 66 70 79 0
4 5 6 11 55 56 61 66 71 80 0
4 5 6 12 55 56 62 66 72 81 0
4 5 6 13 55 56 63 66 73 82 0
4 5 6 14 55 56 64 66 74 83 0
4 5 6 15 55 56 65 66 75 84 0
4 5 7 8 55 57 58 67 68 85 0
4 5 7 9 55 57 59 67 69 86 0
4 5 7 10 55 57 60 67 70 87 0
4 5 7 11 55 57 61 67 71 88 0
4 5 7 12 55 57 62 67 72 89 0
4 5 7 13 55 57 63 67 73 90 0
4 5 7 14 55 57 64 67 74 91 0
4 5 7 15 55 57 65 67 75 92 0
4 5 8 9 55 58 59 68 69 93 0
4 5 8 10 55 58 60 68 70 94 0
4 5 8 11 55 58 61 68 71 95 0
4 5 8 12 55 58 62 68 72 96 0
4 5 8 13 55 58 63 68 73 97 0
4 5 8 14 55 58 64 68 74 98 0
4 5 8 15 55 58 65 68 75 99 0
4 5 9 10 55 59 60 69 70 100 0
4 5 9 11 55 59 61 69 71 101 0
4 5 9 12 55 59 62 69 72 102 0
4 5 9 13 55 59 63 69 73 103 0
4 5 9 14 55 59 64 69 74 104 0
4 5 9 15 55 59 65 69 75 105 0
4 5 10 11 55 60 61 70 71 106 0
4 5 10 12 55 60 62 70 72 107 0
4 5 10 13 55 60 63 70 73 108 0
4 5 10 14 55 60 64 70 74 109 0
4 5 10 15 55 60 65 70 75 110 0
4 5 11 12 55 61 62 71 72 111 0
4 5 11 13 55 61 63 71 73 112 0
4 5 11 14 55 61 64 71 74 113 0
4 5 11 15 55 61 65 71 75 114 0
4 5 12 13 55 62 63 72 73 115 0
4 5 12 14 55 62 64 72 74 116 0
4 5 12 15 55 62 65 72 75 117 0
4 5 13 14 55 63 64 73 74 118 0
4 5 13 15 55 63 65 73 75 119 0
4 5 14 15 55 64 65 74 75 120 0
4 6 7 8 56 57 58 76 77 85 0
4 6 7 9 56 57 59 76 78 86 0
4 6 7 10 56 57 60 76 79 87 0
4 6 7 11 56 57 61 76 80 88 0
4 6 7 12 56 57 62 76 81 89 0
4 6 7 13 56 57 63 76 82 90 0
4 6 7 14 56 57 64 76 83 91 0
4 6 7 15 56 57 65 76 84 92 0
4 6 8 9 56 58 59 77 78 93 0
4 6 8 10 56 58 60 77 79 94 0
4 6 8 11 56 58 61 77 80 95 0
4 6 8 12 56 58 62 77 81 96 0
4 6 8 13 56 58 63 77 82 97 0
4 6 8 14 56 58 64 77 83 98 0
4 6 8 15 56 58 65 77 84 99 0
4 6 9 10 56 59 60 78 79 100 0
4 6 9 11 56 59 61 78 80 101 0
4 6 9 12 56 59 62 78 81 102 0
4 6 9 13 56 59 63 78 82 103 0
4 6 9 14 56 59 64 78 83 104 0
4 6 9 15 56 59 65 78 84 105 0
4 6 10 11 56 60 61 79 80 106 0
4 6 10 12 56 60 62 79 81 107 0
4 6 10 13 56 60 63 79 82 108 0
4 6 10 14 56 60 64 79 83 109 0
4 6 10 15 56 60 65 79 84 110 0
4 6 11 12 56 61 62 80 81 111 0
4 6 11 13 56 61 63 80 82 112 0
4 6 11 14 56 61 64 80 83 113 0
4 6 11 15 56 61 65 80 84 114 0
4 6 12 13 56 62 63 81 82 115 0
4 6 12 14 56 62 64 81 83 116 0
4 6 12 15 56 62 65 81 84 117 0
4 6 13 14 56 63 64 82 83 118 0
4 6 13 15 56 63 65 82 84 119 0
4 6 14 15 56 64 65 83 84 120 0
4 7 8 9 57 58 59 85 86 93 0
4 7 8 10 57 58 60 85 87 94 0
4 7 8 11 57 58 61 85 88 95 0
4 7 8 12 57 58 62 85 89 96 0
4 7 8 13 57 58 63 85 90 97 0
4 7 8 14 57 58 64 85 91 98 0
4 7 8 15 57 58 65 85 92 99 0
4 7 9 10 57 59 60 86 87 100 0
4 7 9 11 57 59 61 86 88 101 0
4 7 9 12 57 59 62 86 89 102 0
4 7 9 13 57 59 63 86 90 103 0
4 7 9 14 57 59 64 86 91 104 0
4 7 9 15 57 59 65 86 92 105 0
4 7 10 11 57 60 61 87 88 106 0
4 7 10 12 57 60 62 87 89 107 0
4 7 10 13 57 60 63 87 90 108 0
4 7 10 14 57 60 64 87 91 109 0
4 7 10 15 57 60 65 87 92 110 0
4 7 11 12 57 61 62 88 89 111 0
4 7 11 13 57 61 63 88 90 112 0
4 7 11 14 57 61 64 88 91 113 0
4 7 11 15 57 61 65 88 92 114 0
4 7 12 13 57 62 63 89 90 115 0
4 7 12 14 57 62 64 89 91 116 0
4 7 12 15 57 62 65 89 92 117 0
4 7 13 14 57 63 64 90 91 118 0
4 7 13 15 57 63 65 90 92 119 0
4 7 14 15 57 64 65 91 92 120 0
4 8 9 10 58 59 60 93 94 100 0
4 8 9 11 58 59 61 93 95 101 0
4 8 9 12 58 59 62 93 96 102 0
4 8 9 13 58 59 63 93 97 103 0
4 8 9 14 58 59 64 93 98 104 0
4 8 9 15 58 59 65 93 99 105 0
4 8 10 11 58 60 61 94 95 106 0
4 8 10 12 58 60 62 94 96 107 0
4 8 10 13 58 60 63 94 97 108 0
4 8 10 14 58 60 64 94 98 109 0
4 8 10 15 58 60 65 94 99 110 0
4 8 11 12 58 61 62 95 96 111 0
4 8 11 13 58 61 63 95 97 112 0
4 8 11 14 58 61 64 95 98 113 0
4 8 11 15 58 61 65 95 99 114 0
4 8 12 13 58 62 63 96 97 115 0
4 8 12 14 58 62 64 96 98 116 0
4 8 12 15 58 62 65 96 99 117 0
4 8 13 14 58 63 64 97 98 118 0
4 8 13 15 58 63 65 97 99 119 0
4 8 14 15 58 64 65 98 99 120 0
4 9 10 11 59 60 61 100 101 106 0
4 9 10 12 59 60 62 100 102 107 0
4 9 10 13 59 60 63 100 103 108 0
4 9 10 14 59 60 64 100 104 109 0
4 9 10 15 59 60 65 100 105 110 0
4 9 11 12 59 61 62 101 102 111 0
4 9 11 13 59 61 63 101 103 112 0
4 9 11 14 59 61 64 101 104 113 0
4 9 11 15 59 61 65 101 105 114 0
4 9 12 13 59 62 63 102 103 115 0
4 9 12 14 59 62 64 102 104 116 0
4 9 12 15 59 62 65 102 105 117 0
4 9 13 14 59 63 64 103 104 118 0
4 9 13 15 59 63 65 103 105 119 0
4 9 14 15 59 64 65 104 105 120 0
4 10 11 12 60 61 62 106 107 111 0
4 10 11 13 60 61 63 106 108 112 0
4 10 11 14 60 61 64 106 109 113 0
4 10 11 15 60 61 65 106 110 114 0
4 10 12 13 60 62 63 107 108 115 0
4 10 12 14 60 62 64 107 109 116 0
4 10 12 15 60 62 65 107 110 117 0
4 10 13 14 60 63 64 108 109 118 0
4 10 13 15 60 63 65 108 110 119 0
4 10 14 15 60 64 65 109 110 120 0
4 11 12 13 61 62 63 111 112 115 0
4 11 12 14 61 62 64 111 113 116 0
4 11 12 15 61 62 65 111 114 117 0
4 11 13 14 61 63 64 112 113 118 0
4 11 13 15 61 63 65 112 114 119 0
4 11 14 15 61 64 65 113 114 120 0
4 12 13 14 62 63 64 115 116 118 0
4 12 13 15 62 63 65 115 117 119 0
4 12 14 15 62 64 65 116 117 120 0
4 13 14 15 63 64 65 118 119 120 0
5 6 7 8 66 67 68 76 77 85 0
5 6 7 9 66 67 69 76 78 86 0
5 6 7 10 66 67 70 76 79 87 0
5 6 7 11 66 67 71 76 80 88 0
5 6 7 12 66 67 72 76 81 89 0
5 6 7 13 66 67 73 76 82 90 0
5 6 7 14 66 67 74 76 83 91 0
5 6 7 15 66 67 75 76 84 92 0
5 6 8 9 66 68 69 77 78 93 0
5 6 8 10 66 68 70 77 79 94 0
5 6 8 11 66 68 71 77 80 95 0
5 6 8 12 66 68 72 77 81 96 0
5 6 8 13 66 68 73 77 82 97 0
5 6 8 14 66 68 74 77 83 98 0
5 6 8 15 66 68 75 77 84 99 0
5 6 9 10 66 69 70 78 79 100 0
5 6 9 11 66 69 71 78 80 101 0
5 6 9 12 66 69 72 78 81 102 0
5 6 9 13 66 69 73 78 82 103 0
5 6 9 14 66 69 74 78 83 104 0
5 6 9 15 66 69 75 78 84 105 0
5 6 10 11 66 70 71 79 80 106 0
5 6 10 12 66 70 72 79 81 107 0
5 6 10 13 66 70 73 79 82 108 0
5 6 10 14 66 70 74 79 83 109 0
5 6 10 15 66 70 75 79 84 110 0
5 6 11 12 66 71 72 80 81 111 0
5 6 11 13 66 71 73 80 82 112 0
5 6 11 14 66 71 74 80 83 113 0
5 6 11 15 66 71 75 80 84 114 0
5 6 12 13 66 72 73 81 82 115 0
5 6 12 14 66 72 74 81 83 116 0
5 6 12 15 66 72 75 81 84 117 0
5 6 13 14 66 73 74 82 83 118 0
5 6 13 15 66 73 75 82 84 119 0
5 6 14 15 66 74 75 83 84 120 0
5 7 8 9 67 68 69 85 86 93 0
5 7 8 10 67 68 70 85 87 94 0
5 7 8 11 67 68 71 85 88 95 0
5 7 8 12 67 68 72 85 89 96 0
5 7 8 13 67 68 73 85 90 97 0
5 7 8 14 67 68 74 85 91 98 0
5 7 8 15 67 68 75 85 92 99 0
5 7 9 10 67 69 70 86 87 100 0
5 7 9 11 67 69 71 86 88 101 0
5 7 9 12 67 69 72 86 89 102 0
5 7 9 13 67 69 73 86 90 103 0
5 7 9 14 67 69 74 86 91 104 0
5 7 9 15 67 69 75 86 92 105 0
5 7 10 11 67 70 71 87 88 106 0
5 7 10 12 67 70 72 87 89 107 0
5 7 10 13 67 70 73 87 90 108 0
5 7 10 14 67 70 74 87 91 109 0
5 7 10 15 67 70 75 87 92 110 0
5 7 11 12 67 71 72 88 89 111 0
5 7 11 13 67 71 73 88 90 112 0
5 7 11 14 67 71 74 88 91 113 0
5 7 11 15 67 71 75 88 92 114 0
5 7 12 13 67 72 73 89 90 115 0
5 7 12 14 67 72 74 89 91 116 0
5 7 12 15 67 72 75 89 92 117 0
5 7 13 14 67 73 74 90 91 118 0
5 7 13 15 67 73 75 90 92 119 0
5 7 14 15 67 74 75 91 92 120 0
5 8 9 10 68 69 70 93 94 100 0
5 8 9 11 68 69 71 93 95 101 0
5 8 9 12 68 69 72 93 96 102 0
5 8 9 13 68 69 73 93 97 103 0
5 8 9 14 68 69 74 93 98 104 0
5 8 9 15 68 69 75 93 99 105 0
5 8 10 11 68 70 71 94 95 106 0
5 8 10 12 68 70 72 94 96 107 0
5 8 10 13 68 70 73 94 97 108 0
5 8 10 14 68 70 74 94 98 109 0
5 8 10 15 68 70 75 94 99 110 0
5 8 11 12 68 71 72 95 96 111 0
5 8 11 13 68 71 73 95 97 112 0
5 8 11 14 68 71 74 95 98 113 0
5 8 11 15 68 71 75 95 99 114 0
5 8 12 13 68 72 73 96 97 115 0
5 8 12 14 68 72 74 96 98 116 0
5 8 12 15 68 72 75 96 99 117 0
5 8 13 14 68 73 74 97 98 118 0
5 8 13 15 68 73 75 97 99 119 0
5 8 14 15 68 74 75 98 99 120 0
5 9 10 11 69 70 71 100 101 106 0
5 9 10 12 69 70 72 100 102 107 0
5 9 10 13 69 70 73 100 103 108 0
5 9 10 14 69 70 74 100 104 109 0
5 9 10 15 69 70 75 100 105 110 0
5 9 11 12 69 71 72 101 102 111 0
5 9 11 13 69 71 73 101 103 112 0
5 9 11 14 69 71 74 101 104 113 0
5 9 11 15 69 71 75 101 105 114 0
5 9 12 13 69 72 73 102 103 115 0
5 9 12 14 69 72 74 102 104 116 0
5 9 12 15 69 72 75 102 105 117 0
5 9 13 14 69 73 74 103 104 118 0
5 9 13 15 69 73 75 103 105 119 0
5 9 14 15 69 74 75 104 105 120 0
5 10 11 12 70 71 72 106 107 111 0
5 10 11 13 70 71 73 106 108 112 0
5 10 11 14 70 71 74 106 109 113 0
5 10 11 15 70 71 75 106 110 114 0
5 10 12 13 70 72 73 107 108 115 0
5 10 12 14 70 72 74 107 109 116 0
5 10 12 15 70 72 75 107 110 117 0
5 10 13 14 70 73 74 108 109 118 0
5 10 13 15 70 73 75 108 110 119 0
5 10 14 15 70 74 75 109 110 120 0
5 11 12 13 71 72 73 111 112 115 0
5 11 12 14 71 72 74 111 113 116 0
5 11 12 15 71 72 75 111 114 117 0
5 11 13 14 71 73 74 112 113 118 0
5 11 13 15 71 73 75 112 114 119 0
5 11 14 15 71 74 75 113 114 120 0
5 12 13 14 72 73 74 115 116 118 0
5 12 13 15 72 73 75 115 117 119 0
5 12 14 15 72 74 75 116 117 120 0
5 13 14 15 73 74 75 118 119 120 0
6 7 8 9 76 77 78 85 86 93 0
6 7 8 10 76 77 79 85 87 94 0
6 7 8 11 76 77 80 85 88 95 0
6 7 8 12 76 77 81 85 89 96 0
6 7 8 13 76 77 82 85 90 97 0
6 7 8 14 76 77 83 85 91 98 0
6 7 8 15 76 77 84 85 92 99 0
6 7 9 10 76 78 79 86 87 100 0
6 7 9 11 76 78 80 86 88 101 0
6 7 9 12 76 78 81 86 89 102 0
6 7 9 13 76 78 82 86 90 103 0
6 7 9 14 76 78 83 86 91 104 0
6 7 9 15 76 78 84 86 92 105 0
6 7 10 11 76 79 80 87 88 106 0
6 7 10 12 76 79 81 87 89 107 0
6 7 10 13 76 79 82 87 90 108 0
6 7 10 14 76 79 83 87 91 109 0
6 7 10 15 76 79 84 87 92 110 0
6 7 11 12 76 80 81 88 89 111 0
6 7 11 13 76 80 82 88 90 112 0
6 7 11 14 76 80 83 88 91 113 0
6 7 11 15 76 80 84 88 92 114 0
6 7 12 13 76 81 82 89 90 115 0
6 7 12 14 76 81 83 89 91 116 0
6 7 12 15 76 81 84 89 92 117 0
6 7 13 14 76 82 83 90 91 118 0
6 7 13 15 76 82 84 90 92 119 0
6 7 14 15 76 83 84 91 92 120 0
6 8 9 10 77 78 79 93 94 100 0
6 8 9 11 77 78 80 93 95 101 0
6 8 9 12 77 78 81 93 96 102 0
6 8 9 13 77 78 82 93 97 103 0
6 8 9 14 77 78 83 93 98 104 0
6 8 9 15 77 78 84 93 99 105 0
6 8 10 11 77 79 80 94 95 106 0
6 8 10 12 77 79 81 94 96 107 0
6 8 10 13 77 79 82 94 97 108 0
6 8 10 14 77 79 83 94 98 109 0
6 8 10 15 77 79 84 94 99 110 0
6 8 11 12 77 80 81 95 96 111 0
6 8 11 13 77 80 82 95 97 112 0
6 8 11 14 77 80 83 95 98 113 0
6 8 11 15 77 80 84 95 99 114 0
6 8 12 13 77 81 82 96 97 115 0
6 8 12 14 77 81 83 96 98 116 0
6 8 12 15 77 81 84 96 99 117 0
6 8 13 14 77 82 83 97 98 118 0
6 8 13 15 77 82 84 97 99 119 0
6 8 14 15 77 83 84 98 99 120 0
6 9 10 11 78 79 80 100 101 106 0
6 9 10 12 78 79 81 100 102 107 0
6 9 10 13 78 79 82 100 103 108 0
6 9 10 14 78 79 83 100 104 109 0
6 9 10 15 78 79 84 100 105 110 0
6 9 11 12 78 80 81 101 102 111 0
6 9 11 13 78 80 82 101 103 112 0
6 9 11 14 78 80 83 101 104 113 0
6 9 11 15 78 80 84 101 105 114 0
6 9 12 13 78 81 82 102 103 115 0
6 9 12 14 78 81 83 102 104 116 0
6 9 12 15 78 81 84 102 105 117 0
6 9 13 14 78 82 83 103 104 118 0
6 9 13 15 78 82 84 103 105 119 0
6 9 14 15 78 83 84 104 105 120 0
6 10 11 12 79 80 81 106 107 111 0
6 10 11 13 79 80 82 106 108 112 0
6 10 11 14 79 80 83 106 109 113 0
6 10 11 15 79 80 84 106 110 114 0
6 10 12 13 79 81 82 107 108 115 0
6 10 12 14 79 81 83 107 109 116 0
6 10 12 15 79 81 84 107 110 117 0
6 10 13 14 79 82 83 108 109 118 0
6 10 13 15 79 82 84 108 110 119 0
6 10 14 15 79 83 84 109 110 120 0
6 11 12 13 80 81 82 111 112 115 0
6 11 12 14 80 81 83 111 113 116 0
6 11 12 15 80 81 84 111 114 117 0
6 11 13 14 80 82 83 112 113 118 0
6 11 13 15 80 82 84 112 114 119 0
6 11 14 15 80 83 84 113 114 120 0
6 12 13 14 81 82 83 115 116 118 0
6 12 13 15 81 82 84 115 117 119 0
6 12 14 15 81 83 84 116 117 120 0
6 13 14 15 82 83 84 118 119 120 0
7 8 9 10 85 86 87 93 94 100 0
7 8 9 11 85 86 88 93 95 101 0
7 8 9 12 85 86 89 93 96 102 0
7 8 9 13 85 86 90 93 97 103 0
7 8 9 14 85 86 91 93 98 104 0
7 8 9 15 85 86 92 93 99 105 0
7 8 10 11 85 87 88 94 95 106 0
7 8 10 12 85 87 89 94 96 107 0
7 8 10 13 85 87 90 94 97 108 0
7 8 10 14 85 87 91 94 98 109 0
7 8 10 15 85 87 92 94 99 110 0
7 8 11 12 85 88 89 95 96 111 0
7 8 11 13 85 88 90 95 97 112 0
7 8 11 14 85 88 91 95 98 113 0
7 8 11 15 85 88 92 95 99 114 0
7 8 12 13 85 89 90 96 97 115 0
7 8 12 14 85 89 91 96 98 116 0
7 8 12 15 85 89 92 96 99 117 0
7 8 13 14 85 90 91 97 98 118 0
7 8 13 15 85 90 92 97 99 119 0
7 8 14 15 85 91 92 98 99 120 0
7 9 10 11 86 87 88 100 101 106 0
7 9 10 12 86 87 89 100 102 107 0
7 9 10 13 86 87 90 100 103 108 0
7 9 10 14 86 87 91 100 104 109 0
7 9 10 15 86 87 92 100 105 110 0
7 9 11 12 86 88 89 101 102 111 0
7 9 11 13 86 88 90 101 103 112 0
7 9 11 14 86 88 91 101 104 113 0
7 9 11 15 86 88 92 101 105 114 0
7 9 12 13 86 89 90 102 103 115 0
7 9 12 14 86 89 91 102 104 116 0
7 9 12 15 86 89 92 102 105 117 0
7 9 13 14 86 90 91 103 104 118 0
7 9 13 15 86 90 92 103 105 119 0
7 9 14 15 86 91 92 104 105 120 0
7 10 11 12 87 88 89 106 107 111 0
7 10 11 13 87 88 90 106 108 112 0
7 10 11 14 87 88 91 106 109 113 0
7 10 11 15 87 88 92 106 110 114 0
7 10 12 13 87 89 90 107 108 115 0
7 10 12 14 87 89 91 107 109 116 0
7 10 12 15 87 89 92 107 110 117 0
7 10 13 14 87 90 91 108 109 118 0
7 10 13 15 87 90 92 108 110 119 0
7 10 14 15 87 91 92 109 110 120 0
7 11 12 13 88 89 90 111 112 115 0
7 11 12 14 88 89 91 111 113 116 0
7 11 12 15 88 89 92 111 114 117 0
7 11 13 14 88 90 91 112 113 118 0
7 11 13 15 88 90 92 112 114 119 0
7 11 14 15 88 91 92 113 114 120 0
7 12 13 14 89 90 91 115 116 118 0
7 12 13 15 89 90 92 115 117 119 0
7 12 14 15 89 91 92 116 117 120 0
7 13 14 15 90 91 92 118 119 120 0
8 9 10 11 93 94 95 100 101 106 0
8 9 10 12 93 94 96 100 102 107 0
8 9 10 13 93 94 97 100 103 108 0
8 9 10 14 93 94 98 100 104 109 0
8 9 10 15 93 94 99 100 105 110 0
8 9 11 12 93 95 96 101 102 111 0
8 9 11 13 93 95 97 101 103 112 0
8 9 11 14 93 95 98 101 104 113 0
8 9 11 15 93 95 99 101 105 114 0
8 9 12 13 93 96 97 102 103 115 0
8 9 12 14 93 96 98 102 104 116 0
8 9 12 15 93 96 99 102 105 117 0
8 9 13 14 93 97 98 103 104 118 0
8 9 13 15 93 97 99 103 105 119 0
8 9 14 15 93 98 99 104 105 120 0
8 10 11 12 94 95 96 106 107 111 0
8 10 11 13 94 95 97 106 108 112 0
8 10 11 14 94 95 98 106 109 113 0
8 10 11 15 94 95 99 106 110 114 0
8 10 12 13 94 96 97 107 108 115 0
8 10 12 14 94 96 98 107 109 116 0
8 10 12 15 94 96 99 107 110 117 0
8 10 13 14 94 97 98 108 109 118 0
8 10 13 15 94 97 99 108 110 119 0
8 10 14 15 94 98 99 109 110 120 0
8 11 12 13 95 96 97 111 112 115 0
8 11 12 14 95 96 98 111 113 116 0
8 11 12 15 95 96 99 111 114 117 0
8 11 13 14 95 97 98 112 113 118 0
8 11 13 15 95 97 99 112 114 119 0
8 11 14 15 95 98 99 113 114 120 0
8 12 13 14 96 97 98 115 116 118 0
8 12 13 15 96 97 99 115 117 119 0
8 12 14 15 96 98 99 116 117 120 0
8 13 14 15 97 98 99 118 119 120 0
9 10 11 12 100 101 102 106 107 111 0
9 10 11 13 100 101 103 106 108 112 0
9 10 11 14 100 101 104 106 109 113 0
9 10 11 15 100 101 105 106 110 114 0
9 10 12 13 100 102 103 107 108 115 0
9 10 12 14 100 102 104 107 109 116 0
9 10 12 15 100 102 105 107 110 117 0
9 10 13 14 100 103 104 108 109 118 0
9 10 13 15 100 103 105 108 110 119 0
9 10 14 15 100 104 105 109 110 120 0
9 11 12 13 101 102 103 111 112 115 0
9 11 12 14 101 102 104 111 113 116 0
9 11 12 15 101 102 105 111 114 117 0
9 11 13 14 101 103 104 112 113 118 0
9 11 13 15 101 103 105 112 114 119 0
9 11 14 15 101 104 105 113 114 120 0
9 12 13 14 102 103 104 115 116 118 0
9 12 13 15 102 103 105 115 117 119 0
9 12 14 15 102 104 105 116 117 120 0
9 13 14 15 103 104 105 118 119 120 0
10 11 12 13 106 107 108 111 112 115 0
10 11 12 14 106 107 109 111 113 116 0
10 11 12 15 106 107 110 111 114 117 0
10 11 13 14 106 108 109 112 113 118 0
10 11 13 15 106 108 110 112 114 119 0
10 11 14 15 106 109 110 113 114 120 0
10 12 13 14 107 108 109 115 116 118 0
10 12 13 15 107 108 110 115 117 119 0
10 12 14 15 107 109 110 116 117 120 0
10 13 14 15 108 109 110 118 119 120 0
11 12 13 14 111 112 113 115 116 118 0
11 12 13 15 111 112 114 115 117 119 0
11 12 14 15 111 113 114 116 117 120 0
11 13 14 15 112 113 114 118 119 120 0
12 13 14 15 115 116 117 118 119 120 0
16 17 18 19 30 31 32 43 44 55 0
16 17 18 20 30 31 33 43 45 56 0
16 17 18 21 30 31 34 43 46 57 0
16 17 18 22 30 31 35 43 47 58 0
16 17 18 23 30 31 36 43 48 59 0
16 17 18 24 30 31 37 43 49 60 0
16 17 18 25 30 31 38 43 50 61 0
16 17 18 26 30 31 39 43 51 62 0
16 17 18 27 30 31 40 43 52 63 0
16 17 18 28 30 31 41 43 53 64 0
16 17 18 29 30 31 42 43 54 65 0
16 17 19 20 30 32 33 44 45 66 0
16 17 19 21 30 32 34 44 46 67 0
16 17 19 22 30 32 35 44 47 68 0
16 17 19 23 30 32 36 44 48 69 0
16 17 19 24 30 32 37 44 49 70 0
16 17 19 25 30 32 38 44 50 71 0
16 17 19 26 30 32 39 44 51 72 0
16 17 19 27 30 32 40 44 52 73 0
16 17 19 28 30 32 41 44 53 74 0
16 17 19 29 30 32 42 44 54 75 0
16 17 20 21 30 33 34 45 46 76 0
16 17 20 22 30 33 35 45 47 77 0
16 17 20 23 30 33 36 45 48 78 0
16 17 20 24 30 33 37 45 49 79 0
16 17 20 25 30 33 38 45 50 80 0
16 17 20 26 30 33 39 45 51 81 0
16 17 20 27 30 33 40 45 52 82 0
16 17 20 28 30 33 41 45 53 83 0
16 17 20 29 30 33 42 45 54 84 0
16 17 21 22 30 34 35 46 47 85 0
16 17 21 23 30 34 36 46 48 86 0
16 17 21 24 30 34 37 46 49 87 0
16 17 21 25 30 34 38 46 50 88 0
16 17 21 26 30 34 39 46 51 89 0
16 17 21 27 30 34 40 46 52 90 0
16 17 21 28 30 34 41 46 53 91 0
16 17 21 29 30 34 42 46 54 92 0
16 17 22 23 30 35 36 47 48 93 0
16 17 22 24 30 35 37 47 49 94 0
16 17 22 25 30 35 38 47 50 95 0
16 17 22 26 30 35 39 47 51 96 0
16 17 22 27 30 35 40 47 52 97 0
16 17 22 28 30 35 41 47 53 98 0
16 17 22 29 30 35 42 47 54 99 0
16 17 23 24 30 36 37 48 49 100 0
16 17 23 25 30 36 38 48 50 101 0
16 17 23 26 30 36 39 48 51 102 0
16 17 23 27 30 36 40 48 52 103 0
16 17 23 28 30 36 41 48 53 104 0
16 17 23 29 30 36 42 48 54 105 0
16 17 24 25 30 37 38 49 50 106 0
16 17 24 26 30 37 39 49 51 107 0
16 17 24 27 30 37 40 49 52 108 0
16 17 24 28 30 37 41 49 53 109 0
16 17 24 29 30 37 42 49 54 110 0
16 17 25 26 30 38 39 50 51 111 0
16 17 25 27 30 38 40 50 52 112 0
16 17 25 28 30 38 41 50 53 113 0
16 17 25 29 30 38 42 50 54 114 0
16 17 26 27 30 39 40 51 52 115 0
16 17 26 28 30 39 41 51 53 116 0
16 17 26 29 30 39 42 51 54 117 0
16 17 27 28 30 40 41 52 53 118 0
16 17 27 29 30 40 42 52 54 119 0
16 17 28 29 30 41 42 53 54 120 0
16 18 19 20 31 32 33 55 56 66 0
16 18 19 21 31 32 34 55 57 67 0
16 18 19 22 31 32 35 55 58 68 0
16 18 19 23 31 32 36 55 59 69 0
16 18 19 24 31 32 37 55 60 70 0
16 18 19 25 31 32 38 55 61 71 0
16 18 19 26 31 32 39 55 62 72 0
16 18 19 27 31 32 40 55 63 73 0
16 18 19 28 31 32 41 55 64 74 0
16 18 19 29 31 32 42 55 65 75 0
16 18 20 21 31 33 34 56 57 76 0
16 18 20 22 31 33 35 56 58 77 0
16 18 20 23 31 33 36 56 59 78 0
16 18 20 24 31 33 37 56 60 79 0
16 18 20 25 31 33 38 56 61 80 0
16 18 20 26 31 33 39 56 62 81 0
16 18 20 27 31 33 40 56 63 82 0
16 18 20 28 31 33 41 56 64 83 0
16 18 20 29 31 33 42 56 65 84 0
16 18 21 22 31 34 35 57 58 85 0
16 18 21 23 31 34 36 57 59 86 0
16 18 21 24 31 34 37 57 60 87 0
16 18 21 25 31 34 38 57 61 88 0
16 18 21 26 31 34 39 57 62 89 0
16 18 21 27 31 34 40 57 63 90 0
16 18 21 28 31 34 41 57 64 91 0
16 18 21 29 31 34 42 57 65 92 0
16 18 22 23 31 35 36 58 59 93 0
16 18 22 24 31 35 37 58 60 94 0
16 18 22 25 31 35 38 58 61 95 0
16 18 22 26 31 35 39 58 62 96 0
16 18 22 27 31 35 40 58 63 97 0
16 18 22 28 31 35 41 58 64 98 0
16 18 22 29 31 35 42 58 65 99 0
16 18 23 24 31 36 37 59 60 100 0
16 18 23 25 31 36 38 59 61 101 0
16 18 23 26 31 36 39 59 62 102 0
16 18 23 27 31 36 40 59 63 103 0
16 18 23 28 31 36 41 59 64 104 0
16 18 23 29 31 36 42 59 65 105 0
16 18 24 25 31 37 38 60 61 106 0
16 18 24 26 31 37 39 60 62 107 0
16 18 24 27 31 37 40 60 63 108 0
16 18 24 28 31 37 41 60 64 109 0
16 18 24 29 31 37 42 60 65 110 0
16 18 25 26 31 38 39 61 62 111 0
16 18 25 27 31 38 40 61 63 112 0
16 18 25 28 31 38 41 61 64 113 0
16 18 25 29 31 38 42 61 65 114 0
16 18 26 27 31 39 40 62 63 115 0
16 18 26 28 31 39 41 62 64 116 0
16 18 26 29 31 39 42 62 65 117 0
16 18 27 28 31 40 41 63 64 118 0
16 18 27 29 31 40 42 63 65 119 0
16 18 28 29 31 41 42 64 65 120 0
16 19 20 21 32 33 34 66 67 76 0
16 19 20 22 32 33 35 66 68 77 0
16 19 20 23 32 33 36 66 69 78 0
16 19 20 24 32 33 37 66 70 79 0
16 19 20 25 32 33 38 66 71 80 0
16 19 20 26 32 33 39 66 72 81 0
16 19 20 27 32 33 40 66 73 82 0
16 19 20 28 32 33 41 66 74 83 0
16 19 20 29 32 33 42 66 75 84 0
16 19 21 22 32 34 35 67 68 85 0
16 19 21 23 32 34 36 67 69 86 0
16 19 21 24 32 34 37 67 70 87 0
16 19 21 25 32 34 38 67 71 88 0
16 19 21 26 32 34 39 67 72 89 0
16 19 21 27 32 34 40 67 73 90 0
16 19 21 28 32 34 41 67 74 91 0
16 19 21 29 32 34 42 67 75 92 0
16 19 22 23 32 35 36 68 69 93 0
16 19 22 24 32 35 37 68 70 94 0
16 19 22 25 32 35 38 68 71 95 0
16 19 22 26 32 35 39 68 72 96 0
16 19 22 27 32 35 40 68 73 97 0
16 19 22 28 32 35 41 68 74 98 0
16 19 22 29 32 35 42 68 75 99 0
16 19 23 24 32 36 37 69 70 100 0
16 19 23 25 32 36 38 69 71 101 0
16 19 23 26 32 36 39 69 72 102 0
16 19 23 27 32 36 40 69 73 103 0
16 19 23 28 32 36 41 69 74 104 0
16 19 23 29 32 36 42 69 75 105 0
16 19 24 25 32 37 38 70 71 106 0
16 19 24 26 32 37 39 70 72 107 0
16 19 24 27 32 37 40 70 73 108 0
16 19 24 28 32 37 41 70 74 109 0
16 19 24 29 32 37 42 70 75 110 0
16 19 25 26 32 38 39 71 72 111 0
16 19 25 27 32 38 40 71 73 112 0
16 19 25 28 32 38 41 71 74 113 0
16 19 25 29 32 38 42 71 75 114 0
16 19 26 27 32 39 40 72 73 115 0
16 19 26 28 32 39 41 72 74 116 0
16 19 26 29 32 39 42 72 75 117 0
16 19 27 28 32 40 41 73 74 118 0
16 19 27 29 32 40 42 73 75 119 0
16 19 28 29 32 41 42 74 75 120 0
16 20 21 22 33 34 35 76 77 85 0
16 20 21 23 33 34 36 76 78 86 0
16 20 21 24 33 34 37 76 79 87 0
16 20 21 25 33 34 38 76 80 88 0
16 20 21 26 33 34 39 76 81 89 0
16 20 21 27 33 34 40 76 82 90 0
16 20 21 28 33 34 41 76 83 91 0
16 20 21 29 33 34 42 76 84 92 0
16 20 22 23 33 35 36 77 78 93 0
16 20 22 24 33 35 37 77 79 94 0
16 20 22 25 33 35 38 77 80 95 0
16 20 22 26 33 35 39 77 81 96 0
16 20 22 27 33 35 40 77 82 97 0
16 20 22 28 33 35 41 77 83 98 0
16 20 22 29 33 35 42 77 84 99 0
16 20 23 24 33 36 37 78 79 100 0
16 20 23 25 33 36 38 78 80 101 0
16 20 23 26 33 36 39 78 81 102 0
16 20 23 27 33 36 40 78 82 103 0
16 20 23 28 33 36 41 78 83 104 0
16 20 23 29 33 36 42 78 84 105 0
16 20 24 25 33 37 38 79 80 106 0
16 20 24 26 33 37 39 79 81 107 0
16 20 24 27 33 37 40 79 82 108 0
16 20 24 28 33 37 41 79 83 109 0
16 20 24 29 33 37 42 79 84 110 0
16 20 25 26 33 38 39 80 81 111 0
16 20 25 27 33 38 40 80 82 112 0
16 20 25 28 33 38 41 80 83 113 0
16 20 25 29 33 38 42 80 84 114 0
16 20 26 27 33 39 40 81 82 115 0
16 20 26 28 33 39 41 81 83 116 0
16 20 26 29 33 39 42 81 84 117 0
16 20 27 28 33 40 41 82 83 118 0
16 20 27 29 33 40 42 82 84 119 0
16 20 28 29 33 41 42 83 84 120 0
16 21 22 23 34 35 36 85 86 93 0
16 21 22 24 34 35 37 85 87 94 0
16 21 22 25 34 35 38 85 88 95 0
16 21 22 26 34 35 39 85 89 96 0
16 21 22 27 34 35 40 85 90 97 0
16 21 22 28 34 35 41 85 91 98 0
16 21 22 29 34 35 42 85 92 99 0
16 21 23 24 34 36 37 86 87 100 0
16 21 23 25 34 36 38 86 88 101 0
16 21 23 26 34 36 39 86 89 102 0
16 21 23 27 34 36 40 86 90 103 0
16 21 23 28 34 36 41 86 91 104 0
16 21 23 29 34 36 42 86 92 105 0
16 21 24 25 34 37 38 87 88 106 0
16 21 24 26 34 37 39 87 89 107 0
16 21 24 27 34 37 40 87 90 108 0
16 21 24 28 34 37 41 87 91 109 0
16 21 24 29 34 37 42 87 92 110 0
16 21 25 26 34 38 39 88 89 111 0
16 21 25 27 34 38 40 88 90 112 0
16 21 25 28 34 38 41 88 91 113 0
16 21 25 29 34 38 42 88 92 114 0
16 21 26 27 34 39 40 89 90 115 0
16 21 26 28 34 39 41 89 91 116 0
16 21 26 29 34 39 42 89 92 117 0
16 21 27 28 34 40 41 90 91 118 0
16 21 27 29 34 40 42 90 92 119 0
16 21 28 29 34 41 42 91 92 120 0
16 22 23 24 35 36 37 93 94 100 0
16 22 23 25 35 36 38 93 95 101 0
16 22 23 26 35 36 39 93 96 102 0
16 22 23 27 35 36 40 93 97 103 0
16 22 23 28 35 36 41 93 98 104 0
16 22 23 29 35 36 42 93 99 105 0
16 22 24 25 35 37 38 94 95 106 0
16 22 24 26 35 37 39 94 96 107 0
16 22 24 27 35 37 40 94 97 108 0
16 22 24 28 35 37 41 94 98 109 0
16 22 24 29 35 37 42 94 99 110 0
16 22 25 26 35 38 39 95 96 111 0
16 22 25 27 35 38 40 95 97 112 0
16 22 25 28 35 38 41 95 98 113 0
16 22 25 29 35 38 42 95 99 114 0
16 22 26 27 35 39 40 96 97 115 0
16 22 26 28 35 39 41 96 98 116 0
16 22 26 29 35 39 42 96 99 117 0
16 22 27 28 35 40 41 97 98 118 0
16 22 27 29 35 40 42 97 99 119 0
16 22 28 29 35 41 42 98 99 120 0
16 23 24 25 36 37 38 100 101 106 0
16 23 24 26 36 37 39 100 102 107 0
16 23 24 27 36 37 40 100 103 108 0
16 23 24 28 36 37 41 100 104 109 0
16 23 24 29 36 37 42 100 105 110 0
16 23 25 26 36 38 39 101 102 111 0
16 23 25 27 36 38 40 101 103 112 0
16 23 25 28 36 38 41 101 104 113 0
16 23 25 29 36 38 42 101 105 114 0
16 23 26 27 36 39 40 102 103 115 0
16 23 26 28 36 39 41 102 104 116 0
16 23 26 29 36 39 42 102 105 117 0
16 23 27 28 36 40 41 103 104 118 0
16 23 27 29 36 40 42 103 105 119 0
16 23 28 29 36 41 42 104 105 120 0
16 24 25 26 37 38 39 106 107 111 0
16 24 25 27 37 38 40 106 108 112 0
16 24 25 28 37 38 41 106 109 113 0
16 24 25 29 37 38 42 106 110 114 0
16 24 26 27 37 39 40 107 108 115 0
16 24 26 28 37 39 41 107 109 116 0
16 24 26 29 37 39 42 107 110 117 0
16 24 27 28 37 40 41 108 109 118 0
16 24 27 29 37 40 42 108 110 119 0
16 24 28 29 37 41 42 109 110 120 0
16 25 26 27 38 39 40 111 112 115 0
16 25 26 28 38 39 41 111 113 116 0
16 25 26 29 38 39 42 111 114 117 0
16 25 27 28 38 40 41 112 113 118 0
16 25 27 29 38 40 42 112 114 119 0
16 25 28 29 38 41 42 113 114 120 0
16 26 27 28 39 40 41 115 116 118 0
16 26 27 29 39 40 42 115 117 119 0
16 26 28 29 39 41 42 116 117 120 0
16 27 28 29 40 41 42 118 119 120 0
17 18 19 20 43 44 45 55 56 66 0
17 18 19 21 43 44 46 55 57 67 0
17 18 19 22 43 44 47 55 58 68 0
17 18 19 23 43 44 48 55 59 69 0
17 18 19 24 43 44 49 55 60 70 0
17 18 19 25 43 44 50 55 61 71 0
17 18 19 26 43 44 51 55 62 72 0
17 18 19 27 43 44 52 55 63 73 0
17 18 19 28 43 44 53 55 64 74 0
17 18 19 29 43 44 54 55 65 75 0
17 18 20 21 43 45 46 56 57 76 0
17 18 20 22 43 45 47 56 58 77 0
17 18 20 23 43 45 48 56 59 78 0
17 18 20 24 43 45 49 56 60 79 0
17 18 20 25 43 45 50 56 61 80 0
17 18 20 26 43 45 51 56 62 81 0
17 18 20 27 43 45 52 56 63 82 0
17 18 20 28 43 45 53 56 64 83 0
17 18 20 29 43 45 54 56 65 84 0
17 18 21 22 43 46 47 57 58 85 0
17 18 21 23 43 46 48 57 59 86 0
17 18 21 24 43 46 49 57 60 87 0
17 18 21 25 43 46 50 57 61 88 0
17 18 21 26 43 46 51 57 62 89 0
17 18 21 27 43 46 52 57 63 90 0
17 18 21 28 43 46 53 57 64 91 0
17 18 21 29 43 46 54 57 65 92 0
17 18 22 23 43 47 48 58 59 93 0
17 18 22 24 43 47 49 58 60 94 0
17 18 22 25 43 47 50 58 61 95 0
17 18 22 26 43 47 51 58 62 96 0
17 18 22 27 43 47 52 58 63 97 0
17 18 22 28 43 47 53 58 64 98 0
17 18 22 29 43 47 54 58 65 99 0
17 18 23 24 43 48 49 59 60 100 0
17 18 23 25 43 48 50 59 61 101 0
17 18 23 26 43 48 51 59 62 102 0
17 18 23 27 43 48 52 59 63 103 0
17 18 23 28 43 48 53 59 64 104 0
17 18 23 29 43 48 54 59 65 105 0
17 18 24 25 43 49 50 60 61 106 0
17 18 24 26 43 49 51 60 62 107 0
17 18 24 27 43 49 52 60 63 108 0
17 18 24 28 43 49 53 60 64 109 0
17 18 24 29 43 49 54 60 65 110 0
17 18 25 26 43 50 51 61 62 111 0
17 18 25 27 43 50 52 61 63 112 0
17 18 25 28 43 50 53 61 64 113 0
17 18 25 29 43 50 54 61 65 114 0
17 18 26 27 43 51 52 62 63 115 0
17 18 26 28 43 51 53 62 64 116 0
17 18 26 29 43 51 54 62 65 117 0
17 18 27 28 43 52 53 63 64 118 0
17 18 27 29 43 52 54 63 65 119 0
17 18 28 29 43 53 54 64 65 120 0
17 19 20 21 44 45 46 66 67 76 0
17 19 20 22 44 45 47 66 68 77 0
17 19 20 23 44 45 48 66 69 78 0
17 19 20 24 44 45 49 66 70 79 0
17 19 20 25 44 45 50 66 71 80 0
17 19 20 26 44 45 51 66 72 81 0
17 19 20 27 44 45 52 66 73 82 0
17 19 20 28 44 45 53 66 74 83 0
17 19 20 29 44 45 54 66 75 84 0
17 19 21 22 44 46 47 67 68 85 0
17 19 21 23 44 46 48 67 69 86 0
17 19 21 24 44 46 49 67 70 87 0
17 19 21 25 44 46 50 67 71 88 0
17 19 21 26 44 46 51 67 72 89 0
17 19 21 27 44 46 52 67 73 90 0
17 19 21 28 44 46 53 67 74 91 0
17 19 21 29 44 46 54 67 75 92 0
17 19 22 23 44 47 48 68 69 93 0
17 19 22 24 44 47 49 68 70 94 0
17 19 22 25 44 47 50 68 71 95 0
17 19 22 26 44 47 51 68 72 96 0
17 19 22 27 44 47 52 68 73 97 0
17 19 22 28 44 47 53 68 74 98 0
17 19 22 29 44 47 54 68 75 99 0
17 19 23 24 44 48 49 69 70 100 0
17 19 23 25 44 48 50 69 71 101 0
17 19 23 26 44 48 51 69 72 102 0
17 19 23 27 44 48 52 69 73 103 0
17 19 23 28 44 48 53 69 74 104 0
17 19 23 29 44 48 54 69 75 105 0
17 19 24 25 44 49 50 70 71 106 0
17 19 24 26 44 49 51 70 72 107 0
17 19 24 27 44 49 52 70 73 108 0
17 19 24 28 44 49 53 70 74 109 0
17 19 24 29 44 49 54 70 75 110 0
17 19 25 26 44 50 51 71 72 111 0
17 19 25 27 44 50 52 71 73 112 0
17 19 25 28 44 50 53 71 74 113 0
17 19 25 29 44 50 54 71 75 114 0
17 19 26 27 44 51 52 72 73 115 0
17 19 26 28 44 51 53 72 74 116 0
17 19 26 29 44 51 54 72 75 117 0
17 19 27 28 44 52 53 73 74 118 0
17 19 27 29 44 52 54 73 75 119 0
17 19 28 29 44 53 54 74 75 120 0
17 20 21 22 45 46 47 76 77 85 0
17 20 21 23 45 46 48 76 78 86 0
17 20 21 24 45 46 49 76 79 87 0
17 20 21 25 45 46 50 76 80 88 0
17 20 21 26 45 46 51 76 81 89 0
17 20 21 27 45 46 52 76 82 90 0
17 20 21 28 45 46 53 76 83 91 0
17 20 21 29 45 46 54 76 84 92 0
17 20 22 23 45 47 48 77 78 93 0
17 20 22 24 45 47 49 77 79 94 0
17 20 22 25 45 47 50 77 80 95 0
17 20 22 26 45 47 51 77 81 96 0
17 20 22 27 45 47 52 77 82 97 0
17 20 22 28 45 47 53 77 83 98 0
17 20 22 29 45 47 54 77 84 99 0
17 20 23 24 45 48 49 78 79 100 0
17 20 23 25 45 48 50 78 80 101 0
17 20 23 26 45 48 51 78 81 102 0
17 20 23 27 45 48 52 78 82 103 0
17 20 23 28 45 48 53 78 83 104 0
17 20 23 29 45 48 54 78 84 105 0
17 20 24 25 45 49 50 79 80 106 0
17 20 24 26 45 49 51 79 81 107 0
17 20 24 27 45 49 52 79 82 108 0
17 20 24 28 45 49 53 79 83 109 0
17 20 24 29 45 49 54 79 84 110 0
17 20 25 26 45 50 51 80 81 111 0
17 20 25 27 45 50 52 80 82 112 0
17 20 25 28 45 50 53 80 83 113 0
17 20 25 29 45 50 54 80 84 114 0
17 20 26 27 45 51 52 81 82 115 0
17 20 26 28 45 51 53 81 83 116 0
17 20 26 29 45 51 54 81 84 117 0
17 20 27 28 45 52 53 82 83 118 0
17 20 27 29 45 52 54 82 84 119 0
17 20 28 29 45 53 54 83 84 120 0
17 21 22 23 46 47 48 85 86 93 0
17 21 22 24 46 47 49 85 87 94 0
17 21 22 25 46 47 50 85 88 95 0
17 21 22 26 46 47 51 85 89 96 0
17 21 22 27 46 47 52 85 90 97 0
17 21 22 28 46 47 53 85 91 98 0
17 21 22 29 46 47 54 85 92 99 0
17 21 23 24 46 48 49 86 87 100 0
17 21 23 25 46 48 50 86 88 101 0
17 21 23 26 46 48 51 86 89 102 0
17 21 23 27 46 48 52 86 90 103 0
17 21 23 28 46 48 53 86 91 104 0
17 21 23 29 46 48 54 86 92 105 0
17 21 24 25 46 49 50 87 88 106 0
17 21 24 26 46 49 51 87 89 107 0
17 21 24 27 46 49 52 87 90 108 0
17 21 24 28 46 49 53 87 91 109 0
17 21 24 29 46 49 54 87 92 110 0
17 21 25 26 46 50 51 88 89 111 0
17 21 25 27 46 50 52 88 90 112 0
17 21 25 28 46 50 53 88 91 113 0
17 21 25 29 46 50 54 88 92 114 0
17 21 26 27 46 51 52 89 90 115 0
17 21 26 28 46 51 53 89 91 116 0
17 21 26 29 46 51 54 89 92 117 0
17 21 27 28 46 52 53 90 91 118 0
17 21 27 29 46 52 54 90 92 119 0
17 21 28 29 46 53 54 91 92 120 0
17 22 23 24 47 48 49 93 94 100 0
17 22 23 25 47 48 50 93 95 101 0
17 22 23 26 47 48 51 93 96 102 0
17 22 23 27 47 48 52 93 97 103 0
17 22 23 28 47 48 53 93 98 104 0
17 22 23 29 47 48 54 93 99 105 0
17 22 24 25 47 49 50 94 95 106 0
17 22 24 26 47 49 51 94 96 107 0
17 22 24 27 47 49 52 94 97 108 0
17 22 24 28 47 49 53 94 98 109 0
17 22 24 29 47 49 54 94 99 110 0
17 22 25 26 47 50 51 95 96 111 0
17 22 25 27 47 50 52 95 97 112 0
17 22 25 28 47 50 53 95 98 113 0
17 22 25 29 47 50 54 95 99 114 0
17 22 26 27 47 51 52 96 97 115 0
17 22 26 28 47 51 53 96 98 116 0
17 22 26 29 47 51 54 96 99 117 0
17 22 27 28 47 52 53 97 98 118 0
17 22 27 29 47 52 54 97 99 119 0
17 22 28 29 47 53 54 98 99 120 0
17 23 24 25 48 49 50 100 101 106 0
17 23 24 26 48 49 51 100 102 107 0
17 23 24 27 48 49 52 100 103 108 0
17 23 24 28 48 49 53 100 104 109 0
17 23 24 29 48 49 54 100 105 110 0
17 23 25 26 48 50 51 101 102 111 0
17 23 25 27 48 50 52 101 103 112 0
17 23 25 28 48 50 53 101 104 113 0
17 23 25 29 48 50 54 101 105 114 0
17 23 26 27 48 51 52 102 103 115 0
17 23 26 28 48 51 53 102 104 116 0
17 23 26 29 48 51 54 102 105 117 0
17 23 27 28 48 52 53 103 104 118 0
17 23 27 29 48 52 54 103 105 119 0
17 23 28 29 48 53 54 104 105 120 0
17 24 25 26 49 50 51 106 107 111 0
17 24 25 27 49 50 52 106 108 112 0
17 24 25 28 49 50 53 106 109 113 0
17 24 25 29 49 50 54 106 110 114 0
17 24 26 27 49 51 52 107 108 115 0
17 24 26 28 49 51 53 107 109 116 0
17 24 26 29 49 51 54 107 110 117 0
17 24 27 28 49 52 53 108 109 118 0
17 24 27 29 49 52 54 108 110 119 0
17 24 28 29 49 53 54 109 110 120 0
17 25 26 27 50 51 52 111 112 115 0
17 25 26 28 50 51 53 111 113 116 0
17 25 26 29 50 51 54 111 114 117 0
17 25 27 28 50 52 53 112 113 118 0
17 25 27 29 50 52 54 112 114 119 0
17 25 28 29 50 53 54 113 114 120 0
17 26 27 28 51 52 53 115 116 118 0
17 26 27 29 51 52 54 115 117 119 0
17 26 28 29 51 53 54 116 117 120 0
17 27 28 29 52 53 54 118 119 120 0
18 19 20 21 55 56 57 66 67 76 0
18 19 20 22 55 56 58 66 68 77 0
18 19 20 23 55 56 59 66 69 78 0
18 19 20 24 55 56 60 66 70 79 0
18 19 20 25 55 56 61 66 71 80 0
18 19 20 26 55 56 62 66 72 81 0
18 19 20 27 55 56 63 66 73 82 0
18 19 20 28 55 56 64 66 74 83 0
18 19 20 29 55 56 65 66 75 84 0
18 19 21 22 55 57 58 67 68 85 0
18 19 21 23 55 57 59 67 69 86 0
18 19 21 24 55 57 60 67 70 87 0
18 19 21 25 55 57 61 67 71 88 0
18 19 21 26 55 57 62 67 72 89 0
18 19 21 27 55 57 63 67 73 90 0
18 19 21 28 55 57 64 67 74 91 0
18 19 21 29 55 57 65 67 75 92 0
18 19 22 23 55 58 59 68 69 93 0
18 19 22 24 55 58 60 68 70 94 0
18 19 22 25 55 58 61 68 71 95 0
18 19 22 26 55 58 62 68 72 96 0
18 19 22 27 55 58 63 68 73 97 0
18 19 22 28 55 58 64 68 74 98 0
18 19 22 29 55 58 65 68 75 99 0
18 19 23 24 55 59 60 69 70 100 0
18 19 23 25 55 59 61 69 71 101 0
18 19 23 26 55 59 62 69 72 102 0
18 19 23 27 55 59 63 69 73 103 0
18 19 23 28 55 59 64 69 74 104 0
18 19 23 29 55 59 65 69 75 105 0
18 19 24 25 55 60 61 70 71 106 0
18 19 24 26 55 60 62 70 72 107 0
18 19 24 27 55 60 63 70 73 108 0
18 19 24 28 55 60 64 70 74 109 0
18 19 24 29 55 60 65 70 75 110 0
18 19 25 26 55 61 62 71 72 111 0
18 19 25 27 55 61 63 71 73 112 0
18 19 25 28 55 61 64 71 74 113 0
18 19 25 29 55 61 65 71 75 114 0
18 19 26 27 55 62 63 72 73 115 0
18 19 26 28 55 62 64 72 74 116 0
18 19 26 29 55 62 65 72 75 117 0
18 19 27 28 55 63 64 73 74 118 0
18 19 27 29 55 63 65 73 75 119 0
18 19 28 29 55 64 65 74 75 120 0
18 20 21 22 56 57 58 76 77 85 0
18 20 21 23 56 57 59 76 78 86 0
18 20 21 24 56 57 60 76 79 87 0
18 20 21 25 56 57 61 76 80 88 0
18 20 21 26 56 57 62 76 81 89 0
18 20 21 27 56 57 63 76 82 90 0
18 20 21 28 56 57 64 76 83 91 0
18 20 21 29 56 57 65 76 84 92 0
18 20 22 23 56 58 59 77 78 93 0
18 20 22 24 56 58 60 77 79 94 0
18 20 22 25 56 58 61 77 80 95 0
18 20 22 26 56 58 62 77 81 96 0
18 20 22 27 56 58 63 77 82 97 0
18 20 22 28 56 58 64 77 83 98 0
18 20 22 29 56 58 65 77 84 99 0
18 20 23 24 56 59 60 78 79 100 0
18 20 23 25 56 59 61 78 80 101 0
18 20 23 26 56 59 62 78 81 102 0
18 20 23 27 56 59 63 78 82 103 0
18 20 23 28 56 59 64 78 83 104 0
18 20 23 29 56 59 65 78 84 105 0
18 20 24 25 56 60 61 79 80 106 0
18 20 24 26 56 60 62 79 81 107 0
18 20 24 27 56 60 63 79 82 108 0
18 20 24 28 56 60 64 79 83 109 0
18 20 24 29 56 60 65 79 84 110 0
18 20 25 26 56 61 62 80 81 111 0
18 20 25 27 56 61 63 80 82 112 0
18 20 25 28 56 61 64 80 83 113 0
18 20 25 29 56 61 65 80 84 114 0
18 20 26 27 56 62 63 81 82 115 0
18 20 26 28 56 62 64 81 83 116 0
18 20 26 29 56 62 65 81 84 117 0
18 20 27 28 56 63 64 82 83 118 0
18 20 27 29 56 63 65 82 84 119 0
18 20 28 29 56 64 65 83 84 120 0
18 21 22 23 57 58 59 85 86 93 0
18 21 22 24 57 58 60 85 87 94 0
18 21 22 25 57 58 61 85 88 95 0
18 21 22 26 57 58 62 85 89 96 0
18 21 22 27 57 58 63 85 90 97 0
18 21 22 28 57 58 64 85 91 98 0
18 21 22 29 57 58 65 85 92 99 0
18 21 23 24 57 59 60 86 87 100 0
18 21 23 25 57 59 61 86 88 101 0
18 21 23 26 57 59 62 86 89 102 0
18 21 23 27 57 59 63 86 90 103 0
18 21 23 28 57 59 64 86 91 104 0
18 21 23 29 57 59 65 86 92 105 0
18 21 24 25 57 60 61 87 88 106 0
18 21 24 26 57 60 62 87 89 107 0
18 21 24 27 57 60 63 87 90 108 0
18 21 24 28 57 60 64 87 91 109 0
18 21 24 29 57 60 65 87 92 110 0
18 21 25 26 57 61 62 88 89 111 0
18 21 25 27 57 61 63 88 90 112 0
18 21 25 28 57 61 64 88 91 113 0
18 21 25 29 57 61 65 88 92 114 0
18 21 26 27 57 62 63 89 90 115 0
18 21 26 28 57 62 64 89 91 116 0
18 21 26 29 57 62 65 89 92 117 0
18 21 27 28 57 63 64 90 91 118 0
18 21 27 29 57 63 65 90 92 119 0
18 21 28 29 57 64 65 91 92 120 0
18 22 23 24 58 59 60 93 94 100 0
18 22 23 25 58 59 61 93 95 101 0
18 22 23 26 58 59 62 93 96 102 0
18 22 23 27 58 59 63 93 97 103 0
18 22 23 28 58 59 64 93 98 104 0
18 22 23 29 58 59 65 93 99 105 0
18 22 24 25 58 60 61 94 95 106 0
18 22 24 26 58 60 62 94 96 107 0
18 22 24 27 58 60 63 94 97 108 0
18 22 24 28 58 60 64 94 98 109 0
18 22 24 29 58 60 65 94 99 110 0
18 22 25 26 58 61 62 95 96 111 0
18 22 25 27 58 61 63 95 97 112 0
18 22 25 28 58 61 64 95 98 113 0
18 22 25 29 58 61 65 95 99 114 0
18 22 26 27 58 62 63 96 97 115 0
18 22 26 28 58 62 64 96 98 116 0
18 22 26 29 58 62 65 96 99 117 0
18 22 27 28 58 63 64 97 98 118 0
18 22 27 29 58 63 65 97 99 119 0
18 22 28 29 58 64 65 98 99 120 0
18 23 24 25 59 60 61 100 101 106 0
18 23 24 26 59 60 62 100 102 107 0
18 23 24 27 59 60 63 100 103 108 0
18 23 24 28 59 60 64 100 104 109 0
18 23 24 29 59 60 65 100 105 110 0
18 23 25 26 59 61 62 101 102 111 0
18 23 25 27 59 61 63 101 103 112 0
18 23 25 28 59 61 64 101 104 113 0
18 23 25 29 59 61 65 101 105 114 0
18 23 26 27 59 62 63 102 103 115 0
18 23 26 28 59 62 64 102 104 116 0
18 23 26 29 59 62 65 102 105 117 0
18 23 27 28 59 63 64 103 104 118 0
18 23 27 29 59 63 65 103 105 119 0
18 23 28 29 59 64 65 104 105 120 0
18 24 25 26 60 61 62 106 107 111 0
18 24 25 27 60 61 63 106 108 112 0
18 24 25 28 60 61 64 106 109 113 0
18 24 25 29 60 61 65 106 110 114 0
18 24 26 27 60 62 63 107 108 115 0
18 24 26 28 60 62 64 107 109 116 0
18 24 26 29 60 62 65 107 110 117 0
18 24 27 28 60 63 64 108 109 118 0
18 24 27 29 60 63 65 108 110 119 0
18 24 28 29 60 64 65 109 110 120 0
18 25 26 27 61 62 63 111 112 115 0
18 25 26 28 61 62 64 111 113 116 0
18 25 26 29 61 62 65 111 114 117 0
18 25 27 28 61 63 64 112 113 118 0
18 25 27 29 61 63 65 112 114 119 0
18 25 28 29 61 64 65 113 114 120 0
18 26 27 28 62 63 64 115 116 118 0
18 26 27 29 62 63 65 115 117 119 0
18 26 28 29 62 64 65 116 117 120 0
18 27 28 29 63 64 65 118 119 120 0
19 20 21 22 66 67 68 76 77 85 0
19 20 21 23 66 67 69 76 78 86 0
19 20 21 24 66 67 70 76 79 87 0
19 20 21 25 66 67 71 76 80 88 0
19 20 21 26 66 67 72 76 81 89 0
19 20 21 27 66 67 73 76 82 90 0
19 20 21 28 66 67 74 76 83 91 0
19 20 21 29 66 67 75 76 84 92 0
19 20 22 23 66 68 69 77 78 93 0
19 20 22 24 66 68 70 77 79 94 0
19 20 22 25 66 68 71 77 80 95 0
19 20 22 26 66 68 72 77 81 96 0
19 20 22 27 66 68 73 77 82 97 0
19 20 22 28 66 68 74 77 83 98 0
19 20 22 29 66 68 75 77 84 99 0
19 20 23 24 66 69 70 78 79 100 0
19 20 23 25 66 69 71 78 80 101 0
19 20 23 26 66 69 72 78 81 102 0
19 20 23 27 66 69 73 78 82 103 0
19 20 23 28 66 69 74 78 83 104 0
19 20 23 29 66 69 75 78 84 105 0
19 20 24 25 66 70 71 79 80 106 0
19 20 24 26 66 70 72 79 81 107 0
19 20 24 27 66 70 73 79 82 108 0
19 20 24 28 66 70 74 79 83 109 0
19 20 24 29 66 70 75 79 84 110 0
19 20 25 26 66 71 72 80 81 111 0
19 20 25 27 66 71 73 80 82 112 0
19 20 25 28 66 71 74 80 83 113 0
19 20 25 29 66 71 75 80 84 114 0
19 20 26 27 66 72 73 81 82 115 0
19 20 26 28 66 72 74 81 83 116 0
19 20 26 29 66 72 75 81 84 117 0
19 20 27 28 66 73 74 82 83 118 0
19 20 27 29 66 73 75 82 84 119 0
19 20 28 29 66 74 75 83 84 120 0
19 21 22 23 67 68 69 85 86 93 0
19 21 22 24 67 68 70 85 87 94 0
19 21 22 25 67 68 71 85 88 95 0
19 21 22 26 67 68 72 85 89 96 0
19 21 22 27 67 68 73 85 90 97 0
19 21 22 28 67 68 74 85 91 98 0
19 21 22 29 67 68 75 85 92 99 0
19 21 23 24 67 69 70 86 87 100 0
19 21 23 25 67 69 71 86 88 101 0
19 21 23 26 67 69 72 86 89 102 0
19 21 23 27 67 69 73 86 90 103 0
19 21 23 28 67 69 74 86 91 104 0
19 21 23 29 67 69 75 86 92 105 0
19 21 24 25 67 70 71 87 88 106 0
19 21 24 26 67 70 72 87 89 107 0
19 21 24 27 67 70 73 87 90 108 0
19 21 24 28 67 70 74 87 91 109 0
19 21 24 29 67 70 75 87 92 110 0
19 21 25 26 67 71 72 88 89 111 0
19 21 25 27 67 71 73 88 90 112 0
19 21 25 28 67 71 74 88 91 113 0
19 21 25 29 67 71 75 88 92 114 0
19 21 26 27 67 72 73 89 90 115 0
19 21 26 28 67 72 74 89 91 116 0
19 21 26 29 67 72 75 89 92 117 0
19 21 27 28 67 73 74 90 91 118 0
19 21 27 29 67 73 75 90 92 119 0
19 21 28 29 67 74 75 91 92 120 0
19 22 23 24 68 69 70 93 94 100 0
19 22 23 25 68 69 71 93 95 101 0
19 22 23 26 68 69 72 93 96 102 0
19 22 23 27 68 69 73 93 97 103 0
19 22 23 28 68 69 74 93 98 104 0
19 22 23 29 68 69 75 93 99 105 0
19 22 24 25 68 70 71 94 95 106 0
19 22 24 26 68 70 72 94 96 107 0
19 22 24 27 68 70 73 94 97 108 0
19 22 24 28 68 70 74 94 98 109 0
19 22 24 29 68 70 75 94 99 110 0
19 22 25 26 68 71 72 95 96 111 0
19 22 25 27 68 71 73 95 97 112 0
19 22 25 28 68 71 74 95 98 113 0
19 22 25 29 68 71 75 95 99 114 0
19 22 26 27 68 72 73 96 97 115 0
19 22 26 28 68 72 74 96 98 116 0
19 22 26 29 68 72 75 96 99 117 0
19 22 27 28 68 73 74 97 98 118 0
19 22 27 29 68 73 75 97 99 119 0
19 22 28 29 68 74 75 98 99 120 0
19 23 24 25 69 70 71 100 101 106 0
19 23 24 26 69 70 72 100 102 107 0
19 23 24 27 69 70 73 100 103 108 0
19 23 24 28 69 70 74 100 104 109 0
19 23 24 29 69 70 75 100 105 110 0
19 23 25 26 69 71 72 101 102 111 0
19 23 25 27 69 71 73 101 103 112 0
19 23 25 28 69 71 74 101 104 113 0
19 23 25 29 69 71 75 101 105 114 0
19 23 26 27 69 72 73 102 103 115 0
19 23 26 28 69 72 74 102 104 116 0
19 23 26 29 69 72 75 102 105 117 0
19 23 27 28 69 73 74 103 104 118 0
19 23 27 29 69 73 75 103 105 119 0
19 23 28 29 69 74 75 104 105 120 0
19 24 25 26 70 71 72 106 107 111 0
19 24 25 27 70 71 73 106 108 112 0
19 24 25 28 70 71 74 106 109 113 0
19 24 25 29 70 71 75 106 110 114 0
19 24 26 27 70 72 73 107 108 115 0
19 24 26 28 70 72 74 107 109 116 0
19 24 26 29 70 72 75 107 110 117 0
19 24 27 28 70 73 74 108 109 118 0
19 24 27 29 70 73 75 108 110 119 0
19 24 28 29 70 74 75 109 110 120 0
19 25 26 27 71 72 73 111 112 115 0
19 25 26 28 71 72 74 111 113 116 0
19 25 26 29 71 72 75 111 114 117 0
19 25 27 28 71 73 74 112 113 118 0
19 25 27 29 71 73 75 112 114 119 0
19 25 28 29 71 74 75 113 114 120 0
19 26 27 28 72 73 74 115 116 118 0
19 26 27 29 72 73 75 115 117 119 0
19 26 28 29 72 74 75 116 117 120 0
19 27 28 29 73 74 75 118 119 120 0
20 21 22 23 76 77 78 85 86 93 0
20 21 22 24 76 77 79 85 87 94 0
20 21 22 25 76 77 80 85 88 95 0
20 21 22 26 76 77 81 85 89 96 0
20 21 22 27 76 77 82 85 90 97 0
20 21 22 28 76 77 83 85 91 98 0
20 21 22 29 76 77 84 85 92 99 0
20 21 23 24 76 78 79 86 87 100 0
20 21 23 25 76 78 80 86 88 101 0
20 21 23 26 76 78 81 86 89 102 0
20 21 23 27 76 78 82 86 90 103 0
20 21 23 28 76 78 83 86 91 104 0
20 21 23 29 76 78 84 86 92 105 0
20 21 24 25 76 79 80 87 88 106 0
20 21 24 26 76 79 81 87 89 107 0
20 21 24 27 76 79 82 87 90 108 0
20 21 24 28 76 79 83 87 91 109 0
20 21 24 29 76 79 84 87 92 110 0
20 21 25 26 76 80 81 88 89 111 0
20 21 25 27 76 80 82 88 90 112 0
20 21 25 28 76 80 83 88 91 113 0
20 21 25 29 76 80 84 88 92 114 0
20 21 26 27 76 81 82 89 90 115 0
20 21 26 28 76 81 83 89 91 116 0
20 21 26 29 76 81 84 89 92 117 0
20 21 27 28 76 82 83 90 91 118 0
20 21 27 29 76 82 84 90 92 119 0
20 21 28 29 76 83 84 91 92 120 0
20 22 23 24 77 78 79 93 94 100 0
20 22 23 25 77 78 80 93 95 101 0
20 22 23 26 77 78 81 93 96 102 0
20 22 23 27 77 78 82 93 97 103 0
20 22 23 28 77 78 83 93 98 104 0
20 22 23 29 77 78 84 93 99 105 0
20 22 24 25 77 79 80 94 95 106 0
20 22 24 26 77 79 81 94 96 107 0
20 22 24 27 77 79 82 94 97 108 0
20 22 24 28 77 79 83 94 98 109 0
20 22 24 29 77 79 84 94 99 110 0
20 22 25 26 77 80 81 95 96 111 0
20 22 25 27 77 80 82 95 97 112 0
20 22 25 28 77 80 83 95 98 113 0
20 22 25 29 77 80 84 95 99 114 0
20 22 26 27 77 81 82 96 97 115 0
20 22 26 28 77 81 83 96 98 116 0
20 22 26 29 77 81 84 96 99 117 0
20 22 27 28 77 82 83 97 98 118 0
20 22 27 29 77 82 84 97 99 119 0
20 22 28 29 77 83 84 98 99 120 0
20 23 24 25 78 79 80 100 101 106 0
20 23 24 26 78 79 81 100 102 107 0
20 23 24 27 78 79 82 100 103 108 0
20 23 24 28 78 79 83 100 104 109 0
20 23 24 29 78 79 84 100 105 110 0
20 23 25 26 78 80 81 101 102 111 0
20 23 25 27 78 80 82 101 103 112 0
20 23 25 28 78 80 83 101 104 113 0
20 23 25 29 78 80 84 101 105 114 0
20 23 26 27 78 81 82 102 103 115 0
20 23 26 28 78 81 83 102 104 116 0
20 23 26 29 78 81 84 102 105 117 0
20 23 27 28 78 82 83 103 104 118 0
20 23 27 29 78 82 84 103 105 119 0
20 23 28 29 78 83 84 104 105 120 0
20 24 25 26 79 80 81 106 107 111 0
20 24 25 27 79 80 82 106 108 112 0
20 24 25 28 79 80 83 106 109 113 0
20 24 25 29 79 80 84 106 110 114 0
20 24 26 27 79 81 82 107 108 115 0
20 24 26 28 79 81 83 107 109 116 0
20 24 26 29 79 81 84 107 110 117 0
20 24 27 28 79 82 83 108 109 118 0
20 24 27 29 79 82 84 108 110 119 0
20 24 28 29 79 83 84 109 110 120 0
20 25 26 27 80 81 82 111 112 115 0
20 25 26 28 80 81 83 111 113 116 0
20 25 26 29 80 81 84 111 114 117 0
20 25 27 28 80 82 83 112 113 118 0
20 25 27 29 80 82 84 112 114 119 0
20 25 28 29 80 83 84 113 114 120 0
20 26 27 28 81 82 83 115 116 118 0
20 26 27 29 81 82 84 115 117 119 0
20 26 28 29 81 83 84 116 117 120 0
20 27 28 29 82 83 84 118 119 120 0
21 22 23 24 85 86 87 93 94 100 0
21 22 23 25 85 86 88 93 95 101 0
21 22 23 26 85 86 89 93 96 102 0
21 22 23 27 85 86 90 93 97 103 0
21 22 23 28 85 86 91 93 98 104 0
21 22 23 29 85 86 92 93 99 105 0
21 22 24 25 85 87 88 94 95 106 0
21 22 24 26 85 87 89 94 96 107 0
21 22 24 27 85 87 90 94 97 108 0
21 22 24 28 85 87 91 94 98 109 0
21 22 24 29 85 87 92 94 99 110 0
21 22 25 26 85 88 89 95 96 111 0
21 22 25 27 85 88 90 95 97 112 0
21 22 25 28 85 88 91 95 98 113 0
21 22 25 29 85 88 92 95 99 114 0
21 22 26 27 85 89 90 96 97 115 0
21 22 26 28 85 89 91 96 98 116 0
21 22 26 29 85 89 92 96 99 117 0
21 22 27 28 85 90 91 97 98 118 0
21 22 27 29 85 90 92 97 99 119 0
21 22 28 29 85 91 92 98 99 120 0
21 23 24 25 86 87 88 100 101 106 0
21 23 24 26 86 87 89 100 102 107 0
21 23 24 27 86 87 90 100 103 108 0
21 23 24 28 86 87 91 100 104 109 0
21 23 24 29 86 87 92 100 105 110 0
21 23 25 26 86 88 89 101 102 111 0
21 23 25 27 86 88 90 101 103 112 0
21 23 25 28 86 88 91 101 104 113 0
21 23 25 29 86 88 92 101 105 114 0
21 23 26 27 86 89 90 102 103 115 0
21 23 26 28 86 89 91 102 104 116 0
21 23 26 29 86 89 92 102 105 117 0
21 23 27 28 86 90 91 103 104 118 0
21 23 27 29 86 90 92 103 105 119 0
21 23 28 29 86 91 92 104 105 120 0
21 24 25 26 87 88 89 106 107 111 0
21 24 25 27 87 88 90 106 108 112 0
21 24 25 28 87 88 91 106 109 113 0
21 24 25 29 87 88 92 106 110 114 0
21 24 26 27 87 89 90 107 108 115 0
21 24 26 28 87 89 91 107 109 116 0
21 24 26 29 87 89 92 107 110 117 0
21 24 27 28 87 90 91 108 109 118 0
21 24 27 29 87 90 92 108 110 119 0
21 24 28 29 87 91 92 109 110 120 0
21 25 26 27 88 89 90 111 112 115 0
21 25 26 28 88 89 91 111 113 116 0
21 25 26 29 88 89 92 111 114 117 0
21 25 27 28 88 90 91 112 113 118 0
21 25 27 29 88 90 92 112 114 119 0
21 25 28 29 88 91 92 113 114 120 0
21 26 27 28 89 90 91 115 116 118 0
21 26 27 29 89 90 92 115 117 119 0
21 26 28 29 89 91 92 116 117 120 0
21 27 28 29 90 91 92 118 119 120 0
22 23 24 25 93 94 95 100 101 106 0
22 23 24 26 93 94 96 100 102 107 0
22 23 24 27 93 94 97 100 103 108 0
22 23 24 28 93 94 98 100 104 109 0
22 23 24 29 93 94 99 100 105 110 0
22 23 25 26 93 95 96 101 102 111 0
22 23 25 27 93 95 97 101 103 112 0
22 23 25 28 93 95 98 101 104 113 0
22 23 25 29 93 95 99 101 105 114 0
22 23 26 27 93 96 97 102 103 115 0
22 23 26 28 93 96 98 102 104 116 0
22 23 26 29 93 96 99 102 105 117 0
22 23 27 28 93 97 98 103 104 118 0
22 23 27 29 93 97 99 103 105 119 0
22 23 28 29 93 98 99 104 105 120 0
22 24 25 26 94 95 96 106 107 111 0
22 24 25 27 94 95 97 106 108 112 0
22 24 25 28 94 95 98 106 109 113 0
22 24 25 29 94 95 99 106 110 114 0
22 24 26 27 94 96 97 107 108 115 0
22 24 26 28 94 96 98 107 109 116 0
22 24 26 29 94 96 99 107 110 117 0
22 24 27 28 94 97 98 108 109 118 0
22 24 27 29 94 97 99 108 110 119 0
22 24 28 29 94 98 99 109 110 120 0
22 25 26 27 95 96 97 111 112 115 0
22 25 26 28 95 96 98 111 113 116 0
22 25 26 29 95 96 99 111 114 117 0
22 25 27 28 95 97 98 112 113 118 0
22 25 27 29 95 97 99 112 114 119 0
22 25 28 29 95 98 99 113 114 120 0
22 26 27 28 96 97 98 115 116 118 0
22 26 27 29 96 97 99 115 117 119 0
22 26 28 29 96 98 99 116 117 120 0
22 27 28 29 97 98 99 118 119 120 0
23 24 25 26 100 101 102 106 107 111 0
23 24 25 27 100 101 103 106 108 112 0
23 24 25 28 100 101 104 106 109 113 0
23 24 25 29 100 101 105 106 110 114 0
23 24 26 27 100 102 103 107 108 115 0
23 24 26 28 100 102 104 107 109 116 0
23 24 26 29 100 102 105 107 110 117 0
23 24 27 28 100 103 104 108 109 118 0
23 24 27 29 100 103 105 108 110 119 0
23 24 28 29 100 104 105 109 110 120 0
23 25 26 27 101 102 103 111 112 115 0
23 25 26 28 101 102 104 111 113 116 0
23 25 26 29 101 102 105 111 114 117 0
23 25 27 28 101 103 104 112 113 118 0
23 25 27 29 101 103 105 112 114 119 0
23 25 28 29 101 104 105 113 114 120 0
23 26 27 28 102 103 104 115 116 118 0
23 26 27 29 102 103 105 115 117 119 0
23 26 28 29 102 104 105 116 117 120 0
23 27 28 29 103 104 105 118 119 120 0
24 25 26 27 106 107 108 111 112 115 0
24 25 26 28 106 107 109 111 113 116 0
24 25 26 29 106 107 110 111 114 117 0
24 25 27 28 106 108 109 112 113 118 0
24 25 27 29 106 108 110 112 114 119 0
24 25 28 29 106 109 110 113 114 120 0
24 26 27 28 107 108 109 115 116 118 0
24 26 27 29 107 108 110 115 117 119 0
24 26 28 29 107 109 110 116 117 120 0
24 27 28 29 108 109 110 118 119 120 0
25 26 27 28 111 112 113 115 116 118 0
25 26 27 29 111 112 114 115 117 119 0
25 26 28 29 111 113 114 116 117 120 0
25 27 28 29 112 113 114 118 119 120 0
26 27 28 29 115 116 117 118 119 120 0
30 31 32 33 43 44 45 55 56 66 0
30 31 32 34 43 44 46 55 57 67 0
30 31 32 35 43 44 47 55 58 68 0
30 31 32 36 43 44 48 55 59 69 0
30 31 32 37 43 44 49 55 60 70 0
30 31 32 38 43 44 50 55 61 71 0
30 31 32 39 43 44 51 55 62 72 0
30 31 32 40 43 44 52 55 63 73 0
30 31 32 41 43 44 53 55 64 74 0
30 31 32 42 43 44 54 55 65 75 0
30 31 33 34 43 45 46 56 57 76 0
30 31 33 35 43 45 47 56 58 77 0
30 31 33 36 43 45 48 56 59 78 0
30 31 33 37 43 45 49 56 60 79 0
30 31 33 38 43 45 50 56 61 80 0
30 31 33 39 43 45 51 56 62 81 0
30 31 33 40 43 45 52 56 63 82 0
30 31 33 41 43 45 53 56 64 83 0
30 31 33 42 43 45 54 56 65 84 0
30 31 34 35 43 46 47 57 58 85 0
30 31 34 36 43 46 48 57 59 86 0
30 31 34 37 43 46 49 57 60 87 0
30 31 34 38 43 46 50 57 61 88 0
30 31 34 39 43 46 51 57 62 89 0
30 31 34 40 43 46 52 57 63 90 0
30 31 34 41 43 46 53 57 64 91 0
30 31 34 42 43 46 54 57 65 92 0
30 31 35 36 43 47 48 58 59 93 0
30 31 35 37 43 47 49 58 60 94 0
30 31 35 38 43 47 50 58 61 95 0
30 31 35 39 43 47 51 58 62 96 0
30 31 35 40 43 47 52 58 63 97 0
30 31 35 41 43 47 53 58 64 98 0
30 31 35 42 43 47 54 58 65 99 0
30 31 36 37 43 48 49 59 60 100 0
30 31 36 38 43 48 50 59 61 101 0
30 31 36 39 43 48 51 59 62 102 0
30 31 36 40 43 48 52 59 63 103 0
30 31 36 41 43 48 53 59 64 104 0
30 31 36 42 43 48 54 59 65 105 0
30 31 37 38 43 49 50 60 61 106 0
30 31 37 39 43 49 51 60 62 107 0
30 31 37 40 43 49 52 60 63 108 0
30 31 37 41 43 49 53 60 64 109 0
30 31 37 42 43 49 54 60 65 110 0
30 31 38 39 43 50 51 61 62 111 0
30 31 38 40 43 50 52 61 63 112 0
30 31 38 41 43 50 53 61 64 113 0
30 31 38 42 43 50 54 61 65 114 0
30 31 39 40 43 51 52 62 63 115 0
30 31 39 41 43 51 53 62 64 116 0
30 31 39 42 43 51 54 62 65 117 0
30 31 40 41 43 52 53 63 64 118 0
30 31 40 42 43 52 54 63 65 119 0
30 31 41 42 43 53 54 64 65 120 0
30 32 33 34 44 45 46 66 67 76 0
30 32 33 35 44 45 47 66 68 77 0
30 32 33 36 44 45 48 66 69 78 0
30 32 33 37 44 45 49 66 70 79 0
30 32 33 38 44 45 50 66 71 80 0
30 32 33 39 44 45 51 66 72 81 0
30 32 33 40 44 45 52 66 73 82 0
30 32 33 41 44 45 53 66 74 83 0
30 32 33 42 44 45 54 66 75 84 0
30 32 34 35 44 46 47 67 68 85 0
30 32 34 36 44 46 48 67 69 86 0
30 32 34 37 44 46 49 67 70 87 0
30 32 34 38 44 46 50 67 71 88 0
30 32 34 39 44 46 51 67 72 89 0
30 32 34 40 44 46 52 67 73 90 0
30 32 34 41 44 46 53 67 74 91 0
30 32 34 42 44 46 54 67 75 92 0
30 32 35 36 44 47 48 68 69 93 0
30 32 35 37 44 47 49 68 70 94 0
30 32 35 38 44 47 50 68 71 95 0
30 32 35 39 44 47 51 68 72 96 0
30 32 35 40 44 47 52 68 73 97 0
30 32 35 41 44 47 53 68 74 98 0
30 32 35 42 44 47 54 68 75 99 0
30 32 36 37 44 48 49 69 70 100 0
30 32 36 38 44 48 50 69 71 101 0
30 32 36 39 44 48 51 69 72 102 0
30 32 36 40 44 48 52 69 73 103 0
30 32 36 41 44 48 53 69 74 104 0
30 32 36 42 44 48 54 69 75 105 0
30 32 37 38 44 49 50 70 71 106 0
30 32 37 39 44 49 51 70 72 107 0
30 32 37 40 44 49 52 70 73 108 0
30 32 37 41 44 49 53 70 74 109 0
30 32 37 42 44 49 54 70 75 110 0
30 32 38 39 44 50 51 71 72 111 0
30 32 38 40 44 50 52 71 73 112 0
30 32 38 41 44 50 53 71 74 113 0
30 32 38 42 44 50 54 71 75 114 0
30 32 39 40 44 51 52 72 73 115 0
30 32 39 41 44 51 53 72 74 116 0
30 32 39 42 44 51 54 72 75 117 0
30 32 40 41 44 52 53 73 74 118 0
30 32 40 42 44 52 54 73 75 119 0
30 32 41 42 44 53 54 74 75 120 0
30 33 34 35 45 46 47 76 77 85 0
30 33 34 36 45 46 48 76 78 86 0
30 33 34 37 45 46 49 76 79 87 0
30 33 34 38 45 46 50 76 80 88 0
30 33 34 39 45 46 51 76 81 89 0
30 33 34 40 45 46 52 76 82 90 0
30 33 34 41 45 46 53 76 83 91 0
30 33 34 42 45 46 54 76 84 92 0
30 33 35 36 45 47 48 77 78 93 0
30 33 35 37 45 47 49 77 79 94 0
30 33 35 38 45 47 50 77 80 95 0
30 33 35 39 45 47 51 77 81 96 0
30 33 35 40 45 47 52 77 82 97 0
30 33 35 41 45 47 53 77 83 98 0
30 33 35 42 45 47 54 77 84 99 0
30 33 36 37 45 48 49 78 79 100 0
30 33 36 38 45 48 50 78 80 101 0
30 33 36 39 45 48 51 78 81 102 0
30 33 36 40 45 48 52 78 82 103 0
30 33 36 41 45 48 53 78 83 104 0
30 33 36 42 45 48 54 78 84 105 0
30 33 37 38 45 49 50 79 80 106 0
30 33 37 39 45 49 51 79 81 107 0
30 33 37 40 45 49 52 79 82 108 0
30 33 37 41 45 49 53 79 83 109 0
30 33 37 42 45 49 54 79 84 110 0
30 33 38 39 45 50 51 80 81 111 0
30 33 38 40 45 50 52 80 82 112 0
30 33 38 41 45 50 53 80 83 113 0
30 33 38 42 45 50 54 80 84 114 0
30 33 39 40 45 51 52 81 82 115 0
30 33 39 41 45 51 53 81 83 116 0
30 33 39 42 45 51 54 81 84 117 0
30 33 40 41 45 52 53 82 83 118 0
30 33 40 42 45 52 54 82 84 119 0
30 33 41 42 45 53 54 83 84 120 0
30 34 35 36 46 47 48 85 86 93 0
30 34 35 37 46 47 49 85 87 94 0
30 34 35 38 46 47 50 85 88 95 0
30 34 35 39 46 47 51 85 89 96 0
30 34 35 40 46 47 52 85 90 97 0
30 34 35 41 46 47 53 85 91 98 0
30 34 35 42 46 47 54 85 92 99 0
30 34 36 37 46 48 49 86 87 100 0
30 34 36 38 46 48 50 86 88 101 0
30 34 36 39 46 48 51 86 89 102 0
30 34 36 40 46 48 52 86 90 103 0
30 34 36 41 46 48 53 86 91 104 0
30 34 36 42 46 48 54 86 92 105 0
30 34 37 38 46 49 50 87 88 106 0
30 34 37 39 46 49 51 87 89 107 0
30 34 37 40 46 49 52 87 90 108 0
30 34 37 41 46 49 53 87 91 109 0
30 34 37 42 46 49 54 87 92 110 0
30 34 38 39 46 50 51 88 89 111 0
30 34 38 40 46 50 52 88 90 112 0
30 34 38 41 46 50 53 88 91 113 0
30 34 38 42 46 50 54 88 92 114 0
30 34 39 40 46 51 52 89 90 115 0
30 34 39 41 46 51 53 89 91 116 0
30 34 39 42 46 51 54 89 92 117 0
30 34 40 41 46 52 53 90 91 118 0
30 34 40 42 46 52 54 90 92 119 0
30 34 41 42 46 53 54 91 92 120 0
30 35 36 37 47 48 49 93 94 100 0
30 35 36 38 47 48 50 93 95 101 0
30 35 36 39 47 48 51 93 96 102 0
30 35 36 40 47 48 52 93 97 103 0
30 35 36 41 47 48 53 93 98 104 0
30 35 36 42 47 48 54 93 99 105 0
30 35 37 38 47 49 50 94 95 106 0
30 35 37 39 47 49 51 94 96 107 0
30 35 37 40 47 49 52 94 97 108 0
30 35 37 41 47 49 53 94 98 109 0
30 35 37 42 47 49 54 94 99 110 0
30 35 38 39 47 50 51 95 96 111 0
30 35 38 40 47 50 52 95 97 112 0
30 35 38 41 47 50 53 95 98 113 0
30 35 38 42 47 50 54 95 99 114 0
30 35 39 40 47 51 52 96 97 115 0
30 35 39 41 47 51 53 96 98 116 0
30 35 39 42 47 51 54 96 99 117 0
30 35 40 41 47 52 53 97 98 118 0
30 35 40 42 47 52 54 97 99 119 0
30 35 41 42 47 53 54 98 99 120 0
30 36 37 38 48 49 50 100 101 106 0
30 36 37 39 48 49 51 100 102 107 0
30 36 37 40 48 49 52 100 103 108 0
30 36 37 41 48 49 53 100 104 109 0
30 36 37 42 48 49 54 100 105 110 0
30 36 38 39 48 50 51 101 102 111 0
30 36 38 40 48 50 52 101 103 112 0
30 36 38 41 48 50 53 101 104 113 0
30 36 38 42 48 50 54 101 105 114 0
30 36 39 40 48 51 52 102 103 115 0
30 36 39 41 48 51 53 102 104 116 0
30 36 39 42 48 51 54 102 105 117 0
30 36 40 41 48 52 53 103 104 118 0
30 36 40 42 48 52 54 103 105 119 0
30 36 41 42 48 53 54 104 105 120 0
30 37 38 39 49 50 51 106 107 111 0
30 37 38 40 49 50 52 106 108 112 0
30 37 38 41 49 50 53 106 109 113 0
30 37 38 42 49 50 54 106 110 114 0
30 37 39 40 49 51 52 107 108 115 0
30 37 39 41 49 51 53 107 109 116 0
30 37 39 42 49 51 54 107 110 117 0
30 37 40 41 49 52 53 108 109 118 0
30 37 40 42 49 52 54 108 110 119 0
30 37 41 42 49 53 54 109 110 120 0
30 38 39 40 50 51 52 111 112 115 0
30 38 39 41 50 51 53 111 113 116 0
30 38 39 42 50 51 54 111 114 117 0
30 38 40 41 50 52 53 112 113 118 0
30 38 40 42 50 52 54 112 114 119 0
30 38 41 42 50 53 54 113 114 120 0
30 39 40 41 51 52 53 115 116 118 0
30 39 40 42 51 52 54 115 117 119 0
30 39 41 42 51 53 54 116 117 120 0
30 40 41 42 52 53 54 118 119 120 0
31 32 33 34 55 56 57 66 67 76 0
31 32 33 35 55 56 58 66 68 77 0
31 32 33 36 55 56 59 66 69 78 0
31 32 33 37 55 56 60 66 70 79 0
31 32 33 38 55 56 61 66 71 80 0
31 32 33 39 55 56 62 66 72 81 0
31 32 33 40 55 56 63 66 73 82 0
31 32 33 41 55 56 64 66 74 83 0
31 32 33 42 55 56 65 66 75 84 0
31 32 34 35 55 57 58 67 68 85 0
31 32 34 36 55 57 59 67 69 86 0
31 32 34 37 55 57 60 67 70 87 0
31 32 34 38 55 57 61 67 71 88 0
31 32 34 39 55 57 62 67 72 89 0
31 32 34 40 55 57 63 67 73 90 0
31 32 34 41 55 57 64 67 74 91 0
31 32 34 42 55 57 65 67 75 92 0
31 32 35 36 55 58 59 68 69 93 0
31 32 35 37 55 58 60 68 70 94 0
31 32 35 38 55 58 61 68 71 95 0
31 32 35 39 55 58 62 68 72 96 0
31 32 35 40 55 58 63 68 73 97 0
31 32 35 41 55 58 64 68 74 98 0
31 32 35 42 55 58 65 68 75 99 0
31 32 36 37 55 59 60 69 70 100 0
31 32 36 38 55 59 61 69 71 101 0
31 32 36 39 55 59 62 69 72 102 0
31 32 36 40 55 59 63 69 73 103 0
31 32 36 41 55 59 64 69 74 104 0
31 32 36 42 55 59 65 69 75 105 0
31 32 37 38 55 60 61 70 71 106 0
31 32 37 39 55 60 62 70 72 107 0
31 32 37 40 55 60 63 70 73 108 0
31 32 37 41 55 60 64 70 74 109 0
31 32 37 42 55 60 65 70 75 110 0
31 32 38 39 55 61 62 71 72 111 0
31 32 38 40 55 61 63 71 73 112 0
31 32 38 41 55 61 64 71 74 113 0
31 32 38 42 55 61 65 71 75 114 0
31 32 39 40 55 62 63 72 73 115 0
31 32 39 41 55 62 64 72 74 116 0
31 32 39 42 55 62 65 72 75 117 0
31 32 40 41 55 63 64 73 74 118 0
31 32 40 42 55 63 65 73 75 119 0
31 32 41 42 55 64 65 74 75 120 0
31 33 34 35 56 57 58 76 77 85 0
31 33 34 36 56 57 59 76 78 86 0
31 33 34 37 56 57 60 76 79 87 0
31 33 34 38 56 57 61 76 80 88 0
31 33 34 39 56 57 62 76 81 89 0
31 33 34 40 56 57 63 76 82 90 0
31 33 34 41 56 57 64 76 83 91 0
31 33 34 42 56 57 65 76 84 92 0
31 33 35 36 56 58 59 77 78 93 0
31 33 35 37 56 58 60 77 79 94 0
31 33 35 38 56 58 61 77 80 95 0
31 33 35 39 56 58 62 77 81 96 0
31 33 35 40 56 58 63 77 82 97 0
31 33 35 41 56 58 64 77 83 98 0
31 33 35 42 56 58 65 77 84 99 0
31 33 36 37 56 59 60 78 79 100 0
31 33 36 38 56 59 61 78 80 101 0
31 33 36 39 56 59 62 78 81 102 0
31 33 36 40 56 59 63 78 82 103 0
31 33 36 41 56 59 64 78 83 104 0
31 33 36 42 56 59 65 78 84 105 0
31 33 37 38 56 60 61 79 80 106 0
31 33 37 39 56 60 62 79 81 107 0
31 33 37 40 56 60 63 79 82 108 0
31 33 37 41 56 60 64 79 83 109 0
31 33 37 42 56 60 65 79 84 110 0
31 33 38 39 56 61 62 80 81 111 0
31 33 38 40 56 61 63 80 82 112 0
31 33 38 41 56 61 64 80 83 113 0
31 33 38 42 56 61 65 80 84 114 0
31 33 39 40 56 62 63 81 82 115 0
31 33 39 41 56 62 64 81 83 116 0
31 33 39 42 56 62 65 81 84 117 0
31 33 40 41 56 63 64 82 83 118 0
31 33 40 42 56 63 65 82 84 119 0
31 33 41 42 56 64 65 83 84 120 0
31 34 35 36 57 58 59 85 86 93 0
31 34 35 37 57 58 60 85 87 94 0
31 34 35 38 57 58 61 85 88 95 0
31 34 35 39 57 58 62 85 89 96 0
31 34 35 40 57 58 63 85 90 97 0
31 34 35 41 57 58 64 85 91 98 0
31 34 35 42 57 58 65 85 92 99 0
31 34 36 37 57 59 60 86 87 100 0
31 34 36 38 57 59 61 86 88 101 0
31 34 36 39 57 59 62 86 89 102 0
31 34 36 40 57 59 63 86 90 103 0
31 34 36 41 57 59 64 86 91 104 0
31 34 36 42 57 59 65 86 92 105 0
31 34 37 38 57 60 61 87 88 106 0
31 34 37 39 57 60 62 87 89 107 0
31 34 37 40 57 60 63 87 90 108 0
31 34 37 41 57 60 64 87 91 109 0
31 34 37 42 57 60 65 87 92 110 0
31 34 38 39 57 61 62 88 89 111 0
31 34 38 40 57 61 63 88 90 112 0
31 34 38 41 57 61 64 88 91 113 0
31 34 38 42 57 61 65 88 92 114 0
31 34 39 40 57 62 63 89 90 115 0
31 34 39 41 57 62 64 89 91 116 0
31 34 39 42 57 62 65 89 92 117 0
31 34 40 41 57 63 64 90 91 118 0
31 34 40 42 57 63 65 90 92 119 0
31 34 41 42 57 64 65 91 92 120 0
31 35 36 37 58 59 60 93 94 100 0
31 35 36 38 58 59 61 93 95 101 0
31 35 36 39 58 59 62 93 96 102 0
31 35 36 40 58 59 63 93 97 103 0
31 35 36 41 58 59 64 93 98 104 0
31 35 36 42 58 59 65 93 99 105 0
31 35 37 38 58 60 61 94 95 106 0
31 35 37 39 58 60 62 94 96 107 0
31 35 37 40 58 60 63 94 97 108 0
31 35 37 41 58 60 64 94 98 109 0
31 35 37 42 58 60 65 94 99 110 0
31 35 38 39 58 61 62 95 96 111 0
31 35 38 40 58 61 63 95 97 112 0
31 35 38 41 58 61 64 95 98 113 0
31 35 38 42 58 61 65 95 99 114 0
31 35 39 40 58 62 63 96 97 115 0
31 35 39 41 58 62 64 96 98 116 0
31 35 39 42 58 62 65 96 99 117 0
31 35 40 41 58 63 64 97 98 118 0
31 35 40 42 58 63 65 97 99 119 0
31 35 41 42 58 64 65 98 99 120 0
31 36 37 38 59 60 61 100 101 106 0
31 36 37 39 59 60 62 100 102 107 0
31 36 37 40 59 60 63 100 103 108 0
31 36 37 41 59 60 64 100 104 109 0
31 36 37 42 59 60 65 100 105 110 0
31 36 38 39 59 61 62 101 102 111 0
31 36 38 40 59 61 63 101 103 112 0
31 36 38 41 59 61 64 101 104 113 0
31 36 38 42 59 61 65 101 105 114 0
31 36 39 40 59 62 63 102 103 115 0
31 36 39 41 59 62 64 102 104 116 0
31 36 39 42 59 62 65 102 105 117 0
31 36 40 41 59 63 64 103 104 118 0
31 36 40 42 59 63 65 103 105 119 0
31 36 41 42 59 64 65 104 105 120 0
31 37 38 39 60 61 62 106 107 111 0
31 37 38 40 60 61 63 106 108 112 0
31 37 38 41 60 61 64 106 109 113 0
31 37 38 42 60 61 65 106 110 114 0
31 37 39 40 60 62 63 107 108 115 0
31 37 39 41 60 62 64 107 109 116 0
31 37 39 42 60 62 65 107 110 117 0
31 37 40 41 60 63 64 108 109 118 0
31 37 40 42 60 63 65 108 110 119 0
31 37 41 42 60 64 65 109 110 120 0
31 38 39 40 61 62 63 111 112 115 0
31 38 39 41 61 62 64 111 113 116 0
31 38 39 42 61 62 65 111 114 117 0
31 38 40 41 61 63 64 112 113 118 0
31 38 40 42 61 63 65 112 114 119 0
31 38 41 42 61 64 65 113 114 120 0
31 39 40 41 62 63 64 115 116 118 0
31 39 40 42 62 63 65 115 117 119 0
31 39 41 42 62 64 65 116 117 120 0
31 40 41 42 63 64 65 118 119 120 0
32 33 34 35 66 67 68 76 77 85 0
32 33 34 36 66 67 69 76 78 86 0
32 33 34 37 66 67 70 76 79 87 0
32 33 34 38 66 67 71 76 80 88 0
32 33 34 39 66 67 72 76 81 89 0
32 33 34 40 66 67 73 76 82 90 0
32 33 34 41 66 67 74 76 83 91 0
32 33 34 42 66 67 75 76 84 92 0
32 33 35 36 66 68 69 77 78 93 0
32 33 35 37 66 68 70 77 79 94 0
32 33 35 38 66 68 71 77 80 95 0
32 33 35 39 66 68 72 77 81 96 0
32 33 35 40 66 68 73 77 82 97 0
32 33 35 41 66 68 74 77 83 98 0
32 33 35 42 66 68 75 77 84 99 0
32 33 36 37 66 69 70 78 79 100 0
32 33 36 38 66 69 71 78 80 101 0
32 33 36 39 66 69 72 78 81 102 0
32 33 36 40 66 69 73 78 82 103 0
32 33 36 41 66 69 74 78 83 104 0
32 33 36 42 66 69 75 78 84 105 0
32 33 37 38 66 70 71 79 80 106 0
32 33 37 39 66 70 72 79 81 107 0
32 33 37 40 66 70 73 79 82 108 0
32 33 37 41 66 70 74 79 83 109 0
32 33 37 42 66 70 75 79 84 110 0
32 33 38 39 66 71 72 80 81 111 0
32 33 38 40 66 71 73 80 82 112 0
32 33 38 41 66 71 74 80 83 113 0
32 33 38 42 66 71 75 80 84 114 0
32 33 39 40 66 72 73 81 82 115 0
32 33 39 41 66 72 74 81 83 116 0
32 33 39 42 66 72 75 81 84 117 0
32 33 40 41 66 73 74 82 83 118 0
32 33 40 42 66 73 75 82 84 119 0
32 33 41 42 66 74 75 83 84 120 0
32 34 35 36 67 68 69 85 86 93 0
32 34 35 37 67 68 70 85 87 94 0
32 34 35 38 67 68 71 85 88 95 0
32 34 35 39 67 68 72 85 89 96 0
32 34 35 40 67 68 73 85 90 97 0
32 34 35 41 67 68 74 85 91 98 0
32 34 35 42 67 68 75 85 92 99 0
32 34 36 37 67 69 70 86 87 100 0
32 34 36 38 67 69 71 86 88 101 0
32 34 36 39 67 69 72 86 89 102 0
32 34 36 40 67 69 73 86 90 103 0
32 34 36 41 67 69 74 86 91 104 0
32 34 36 42 67 69 75 86 92 105 0
32 34 37 38 67 70 71 87 88 106 0
32 34 37 39 67 70 72 87 89 107 0
32 34 37 40 67 70 73 87 90 108 0
32 34 37 41 67 70 74 87 91 109 0
32 34 37 42 67 70 75 87 92 110 0
32 34 38 39 67 71 72 88 89 111 0
32 34 38 40 67 71 73 88 90 112 0
32 34 38 41 67 71 74 88 91 113 0
32 34 38 42 67 71 75 88 92 114 0
32 34 39 40 67 72 73 89 90 115 0
32 34 39 41 67 72 74 89 91 116 0
32 34 39 42 67 72 75 89 92 117 0
32 34 40 41 67 73 74 90 91 118 0
32 34 40 42 67 73 75 90 92 119 0
32 34 41 42 67 74 75 91 92 120 0
32 35 36 37 68 69 70 93 94 100 0
32 35 36 38 68 69 71 93 95 101 0
32 35 36 39 68 69 72 93 96 102 0
32 35 36 40 68 69 73 93 97 103 0
32 35 36 41 68 69 74 93 98 104 0
32 35 36 42 68 69 75 93 99 105 0
32 35 37 38 68 70 71 94 95 106 0
32 35 37 39 68 70 72 94 96 107 0
32 35 37 40 68 70 73 94 97 108 0
32 35 37 41 68 70 74 94 98 109 0
32 35 37 42 68 70 75 94 99 110 0
32 35 38 39 68 71 72 95 96 111 0
32 35 38 40 68 71 73 95 97 112 0
32 35 38 41 68 71 74 95 98 113 0
32 35 38 42 68 71 75 95 99 114 0
32 35 39 40 68 72 73 96 97 115 0
32 35 39 41 68 72 74 96 98 116 0
32 35 39 42 68 72 75 96 99 117 0
32 35 40 41 68 73 74 97 98 118 0
32 35 40 42 68 73 75 97 99 119 0
32 35 41 42 68 74 75 98 99 120 0
32 36 37 38 69 70 71 100 101 106 0
32 36 37 39 69 70 72 100 102 107 0
32 36 37 40 69 70 73 100 103 108 0
32 36 37 41 69 70 74 100 104 109 0
32 36 37 42 69 70 75 100 105 110 0
32 36 38 39 69 71 72 101 102 111 0
32 36 38 40 69 71 73 101 103 112 0
32 36 38 41 69 71 74 101 104 113 0
32 36 38 42 69 71 75 101 105 114 0
32 36 39 40 69 72 73 102 103 115 0
32 36 39 41 69 72 74 102 104 116 0
32 36 39 42 69 72 75 102 105 117 0
32 36 40 41 69 73 74 103 104 118 0
32 36 40 42 69 73 75 103 105 119 0
32 36 41 42 69 74 75 104 105 120 0
32 37 38 39 70 71 72 106 107 111 0
32 37 38 40 70 71 73 106 108 112 0
32 37 38 41 70 71 74 106 109 113 0
32 37 38 42 70 71 75 106 110 114 0
32 37 39 40 70 72 73 107 108 115 0
32 37 39 41 70 72 74 107 109 116 0
32 37 39 42 70 72 75 107 110 117 0
32 37 40 41 70 73 74 108 109 118 0
32 37 40 42 70 73 75 108 110 119 0
32 37 41 42 70 74 75 109 110 120 0
32 38 39 40 71 72 73 111 112 115 0
32 38 39 41 71 72 74 111 113 116 0
32 38 39 42 71 72 75 111 114 117 0
32 38 40 41 71 73 74 112 113 118 0
32 38 40 42 71 73 75 112 114 119 0
32 38 41 42 71 74 75 113 114 120 0
32 39 40 41 72 73 74 115 116 118 0
32 39 40 42 72 73 75 115 117 119 0
32 39 41 42 72 74 75 116 117 120 0
32 40 41 42 73 74 75 118 119 120 0
33 34 35 36 76 77 78 85 86 93 0
33 34 35 37 76 77 79 85 87 94 0
33 34 35 38 76 77 80 85 88 95 0
33 34 35 39 76 77 81 85 89 96 0
33 34 35 40 76 77 82 85 90 97 0
33 34 35 41 76 77 83 85 91 98 0
33 34 35 42 76 77 84 85 92 99 0
33 34 36 37 76 78 79 86 87 100 0
33 34 36 38 76 78 80 86 88 101 0
33 34 36 39 76 78 81 86 89 102 0
33 34 36 40 76 78 82 86 90 103 0
33 34 36 41 76 78 83 86 91 104 0
33 34 36 42 76 78 84 86 92 105 0
33 34 37 38 76 79 80 87 88 106 0
33 34 37 39 76 79 81 87 89 107 0
33 34 37 40 76 79 82 87 90 108 0
33 34 37 41 76 79 83 87 91 109 0
33 34 37 42 76 79 84 87 92 110 0
33 34 38 39 76 80 81 88 89 111 0
33 34 38 40 76 80 82 88 90 112 0
33 34 38 41 76 80 83 88 91 113 0
33 34 38 42 76 80 84 88 92 114 0
33 34 39 40 76 81 82 89 90 115 0
33 34 39 41 76 81 83 89 91 116 0
33 34 39 42 76 81 84 89 92 117 0
33 34 40 41 76 82 83 90 91 118 0
33 34 40 42 76 82 84 90 92 119 0
33 34 41 42 76 83 84 91 92 120 0
33 35 36 37 77 78 79 93 94 100 0
33 35 36 38 77 78 80 93 95 101 0
33 35 36 39 77 78 81 93 96 102 0
33 35 36 40 77 78 82 93 97 103 0
33 35 36 41 77 78 83 93 98 104 0
33 35 36 42 77 78 84 93 99 105 0
33 35 37 38 77 79 80 94 95 106 0
33 35 37 39 77 79 81 94 96 107 0
33 35 37 40 77 79 82 94 97 108 0
33 35 37 41 77 79 83 94 98 109 0
33 35 37 42 77 79 84 94 99 110 0
33 35 38 39 77 80 81 95 96 111 0
33 35 38 40 77 80 82 95 97 112 0
33 35 38 41 77 80 83 95 98 113 0
33 35 38 42 77 80 84 95 99 114 0
33 35 39 40 77 81 82 96 97 115 0
33 35 39 41 77 81 83 96 98 116 0
33 35 39 42 77 81 84 96 99 117 0
33 35 40 41 77 82 83 97 98 118 0
33 35 40 42 77 82 84 97 99 119 0
33 35 41 42 77 83 84 98 99 120 0
33 36 37 38 78 79 80 100 101 106 0
33 36 37 39 78 79 81 100 102 107 0
33 36 37 40 78 79 82 100 103 108 0
33 36 37 41 78 79 83 100 104 109 0
33 36 37 42 78 79 84 100 105 110 0
33 36 38 39 78 80 81 101 102 111 0
33 36 38 40 78 80 82 101 103 112 0
33 36 38 41 78 80 83 101 104 113 0
33 36 38 42 78 80 84 101 105 114 0
33 36 39 40 78 81 82 102 103 115 0
33 36 39 41 78 81 83 102 104 116 0
33 36 39 42 78 81 84 102 105 117 0
33 36 40 41 78 82 83 103 104 118 0
33 36 40 42 78 82 84 103 105 119 0
33 36 41 42 78 83 84 104 105 120 0
33 37 38 39 79 80 81 106 107 111 0
33 37 38 40 79 80 82 106 108 112 0
33 37 38 41 79 80 83 106 109 113 0
33 37 38 42 79 80 84 106 110 114 0
33 37 39 40 79 81 82 107 108 115 0
33 37 39 41 79 81 83 107 109 116 0
33 37 39 42 79 81 84 107 110 117 0
33 37 40 41 79 82 83 108 109 118 0
33 37 40 42 79 82 84 108 110 119 0
33 37 41 42 79 83 84 109 110 120 0
33 38 39 40 80 81 82 111 112 115 0
33 38 39 41 80 81 83 111 113 116 0
33 38 39 42 80 81 84 111 114 117 0
33 38 40 41 80 82 83 112 113 118 0
33 38 40 42 80 82 84 112 114 119 0
33 38 41 42 80 83 84 113 114 120 0
33 39 40 41 81 82 83 115 116 118 0
33 39 40 42 81 82 84 115 117 119 0
33 39 41 42 81 83 84 116 117 120 0
33 40 41 42 82 83 84 118 119 120 0
34 35 36 37 85 86 87 93 94 100 0
34 35 36 38 85 86 88 93 95 101 0
34 35 36 39 85 86 89 93 96 102 0
34 35 36 40 85 86 90 93 97 103 0
34 35 36 41 85 86 91 93 98 104 0
34 35 36 42 85 86 92 93 99 105 0
34 35 37 38 85 87 88 94 95 106 0
34 35 37 39 85 87 89 94 96 107 0
34 35 37 40 85 87 90 94 97 108 0
34 35 37 41 85 87 91 94 98 109 0
34 35 37 42 85 87 92 94 99 110 0
34 35 38 39 85 88 89 95 96 111 0
34 35 38 40 85 88 90 95 97 112 0
34 35 38 41 85 88 91 95 98 113 0
34 35 38 42 85 88 92 95 99 114 0
34 35 39 40 85 89 90 96 97 115 0
34 35 39 41 85 89 91 96 98 116 0
34 35 39 42 85 89 92 96 99 117 0
34 35 40 41 85 90 91 97 98 118 0
34 35 40 42 85 90 92 97 99 119 0
34 35 41 42 85 91 92 98 99 120 0
34 36 37 38 86 87 88 100 101 106 0
34 36 37 39 86 87 89 100 102 107 0
34 36 37 40 86 87 90 100 103 108 0
34 36 37 41 86 87 91 100 104 109 0
34 36 37 42 86 87 92 100 105 110 0
34 36 38 39 86 88 89 101 102 111 0
34 36 38 40 86 88 90 101 103 112 0
34 36 38 41 86 88 91 101 104 113 0
34 36 38 42 86 88 92 101 105 114 0
34 36 39 40 86 89 90 102 103 115 0
34 36 39 41 86 89 91 102 104 116 0
34 36 39 42 86 89 92 102 105 117 0
34 36 40 41 86 90 91 103 104 118 0
34 36 40 42 86 90 92 103 105 119 0
34 36 41 42 86 91 92 104 105 120 0
34 37 38 39 87 88 89 106 107 111 0
34 37 38 40 87 88 90 106 108 112 0
34 37 38 41 87 88 91 106 109 113 0
34 37 38 42 87 88 92 106 110 114 0
34 37 39 40 87 89 90 107 108 115 0
34 37 39 41 87 89 91 107 109 116 0
34 37 39 42 87 89 92 107 110 117 0
34 37 40 41 87 90 91 108 109 118 0
34 37 40 42 87 90 92 108 110 119 0
34 37 41 42 87 91 92 109 110 120 0
34 38 39 40 88 89 90 111 112 115 0
34 38 39 41 88 89 91 111 113 116 0
34 38 39 42 88 89 92 111 114 117 0
34 38 40 41 88 90 91 112 113 118 0
34 38 40 42 88 90 92 112 114 119 0
34 38 41 42 88 91 92 113 114 120 0
34 39 40 41 89 90 91 115 116 118 0
34 39 40 42 89 90 92 115 117 119 0
34 39 41 42 89 91 92 116 117 120 0
34 40 41 42 90 91 92 118 119 120 0
35 36 37 38 93 94 95 100 101 106 0
35 36 37 39 93 94 96 100 102 107 0
35 36 37 40 93 94 97 100 103 108 0
35 36 37 41 93 94 98 100 104 109 0
35 36 37 42 93 94 99 100 105 110 0
35 36 38 39 93 95 96 101 102 111 0
35 36 38 40 93 95 97 101 103 112 0
35 36 38 41 93 95 98 101 104 113 0
35 36 38 42 93 95 99 101 105 114 0
35 36 39 40 93 96 97 102 103 115 0
35 36 39 41 93 96 98 102 104 116 0
35 36 39 42 93 96 99 102 105 117 0
35 36 40 41 93 97 98 103 104 118 0
35 36 40 42 93 97 99 103 105 119 0
35 36 41 42 93 98 99 104 105 120 0
35 37 38 39 94 95 96 106 107 111 0
35 37 38 40 94 95 97 106 108 112 0
35 37 38 41 94 95 98 106 109 113 0
35 37 38 42 94 95 99 106 110 114 0
35 37 39 40 94 96 97 107 108 115 0
35 37 39 41 94 96 98 107 109 116 0
35 37 39 42 94 96 99 107 110 117 0
35 37 40 41 94 97 98 108 109 118 0
35 37 40 42 94 97 99 108 110 119 0
35 37 41 42 94 98 99 109 110 120 0
35 38 39 40 95 96 97 111 112 115 0
35 38 39 41 95 96 98 111 113 116 0
35 38 39 42 95 96 99 111 114 117 0
35 38 40 41 95 97 98 112 113 118 0
35 38 40 42 95 97 99 112 114 119 0
35 38 41 42 95 98 99 113 114 120 0
35 39 40 41 96 97 98 115 116 118 0
35 39 40 42 96 97 99 115 117 119 0
35 39 41 42 96 98 99 116 117 120 0
35 40 41 42 97 98 99 118 119 120 0
36 37 38 39 100 101 102 106 107 111 0
36 37 38 40 100 101 103 106 108 112 0
36 37 38 41 100 101 104 106 109 113 0
36 37 38 42 100 101 105 106 110 114 0
36 37 39 40 100 102 103 107 108 115 0
36 37 39 41 100 102 104 107 109 116 0
36 37 39 42 100 102 105 107 110 117 0
36 37 40 41 100 103 104 108 109 118 0
36 37 40 42 100 103 105 108 110 119 0
36 37 41 42 100 104 105 109 110 120 0
36 38 39 40 101 102 103 111 112 115 0
36 38 39 41 101 102 104 111 113 116 0
36 38 39 42 101 102 105 111 114 117 0
36 38 40 41 101 103 104 112 113 118 0
36 38 40 42 101 103 105 112 114 119 0
36 38 41 42 101 104 105 113 114 120 0
36 39 40 41 102 103 104 115 116 118 0
36 39 40 42 102 103 105 115 117 119 0
36 39 41 42 102 104 105 116 117 120 0
36 40 41 42 103 104 105 118 119 120 0
37 38 39 40 106 107 108 111 112 115 0
37 38 39 41 106 107 109 111 113 116 0
37 38 39 42 106 107 110 111 114 117 0
37 38 40 41 106 108 109 112 113 118 0
37 38 40 42 106 108 110 112 114 119 0
37 38 41 42 106 109 110 113 114 120 0
37 39 40 41 107 108 109 115 116 118 0
37 39 40 42 107 108 110 115 117 119 0
37 39 41 42 107 109 110 116 117 120 0
37 40 41 42 108 109 110 118 119 120 0
38 39 40 41 111 112 113 115 116 118 0
38 39 40 42 111 112 114 115 117 119 0
38 39 41 42 111 113 114 116 117 120 0
38 40 41 42 112 113 114 118 119 120 0
39 40 41 42 115 116 117 118 119 120 0
43 44 45 46 55 56 57 66 67 76 0
43 44 45 47 55 56 58 66 68 77 0
43 44 45 48 55 56 59 66 69 78 0
43 44 45 49 55 56 60 66 70 79 0
43 44 45 50 55 56 61 66 71 80 0
43 44 45 51 55 56 62 66 72 81 0
43 44 45 52 55 56 63 66 73 82 0
43 44 45 53 55 56 64 66 74 83 0
43 44 45 54 55 56 65 66 75 84 0
43 44 46 47 55 57 58 67 68 85 0
43 44 46 48 55 57 59 67 69 86 0
43 44 46 49 55 57 60 67 70 87 0
43 44 46 50 55 57 61 67 71 88 0
43 44 46 51 55 57 62 67 72 89 0
43 44 46 52 55 57 63 67 73 90 0
43 44 46 53 55 57 64 67 74 91 0
43 44 46 54 55 57 65 67 75 92 0
43 44 47 48 55 58 59 68 69 93 0
43 44 47 49 55 58 60 68 70 94 0
43 44 47 50 55 58 61 68 71 95 0
43 44 47 51 55 58 62 68 72 96 0
43 44 47 52 55 58 63 68 73 97 0
43 44 47 53 55 58 64 68 74 98 0
43 44 47 54 55 58 65 68 75 99 0
43 44 48 49 55 59 60 69 70 100 0
43 44 48 50 55 59 61 69 71 101 0
43 44 48 51 55 59 62 69 72 102 0
43 44 48 52 55 59 63 69 73 103 0
43 44 48 53 55 59 64 69 74 104 0
43 44 48 54 55 59 65 69 75 105 0
43 44 49 50 55 60 61 70 71 106 0
43 44 49 51 55 60 62 70 72 107 0
43 44 49 52 55 60 63 70 73 108 0
43 44 49 53 55 60 64 70 74 109 0
43 44 49 54 55 60 65 70 75 110 0
43 44 50 51 55 61 62 71 72 111 0
43 44 50 52 55 61 63 71 73 112 0
43 44 50 53 55 61 64 71 74 113 0
43 44 50 54 55 61 65 71 75 114 0
43 44 51 52 55 62 63 72 73 115 0
43 44 51 53 55 62 64 72 74 116 0
43 44 51 54 55 62 65 72 75 117 0
43 44 52 53 55 63 64 73 74 118 0
43 44 52 54 55 63 65 73 75 119 0
43 44 53 54 55 64 65 74 75 120 0
43 45 46 47 56 57 58 76 77 85 0
43 45 46 48 56 57 59 76 78 86 0
43 45 46 49 56 57 60 76 79 87 0
43 45 46 50 56 57 61 76 80 88 0
43 45 46 51 56 57 62 76 81 89 0
43 45 46 52 56 57 63 76 82 90 0
43 45 46 53 56 57 64 76 83 91 0
43 45 46 54 56 57 65 76 84 92 0
43 45 47 48 56 58 59 77 78 93 0
43 45 47 49 56 58 60 77 79 94 0
43 45 47 50 56 58 61 77 80 95 0
43 45 47 51 56 58 62 77 81 96 0
43 45 47 52 56 58 63 77 82 97 0
43 45 47 53 56 58 64 77 83 98 0
43 45 47 54 56 58 65 77 84 99 0
43 45 48 49 56 59 60 78 79 100 0
43 45 48 50 56 59 61 78 80 101 0
43 45 48 51 56 59 62 78 81 102 0
43 45 48 52 56 59 63 78 82 103 0
43 45 48 53 56 59 64 78 83 104 0
43 45 48 54 56 59 65 78 84 105 0
43 45 49 50 56 60 61 79 80 106 0
43 45 49 51 56 60 62 79 81 107 0
43 45 49 52 56 60 63 79 82 108 0
43 45 49 53 56 60 64 79 83 109 0
43 45 49 54 56 60 65 79 84 110 0
43 45 50 51 56 61 62 80 81 111 0
43 45 50 52 56 61 63 80 82 112 0
43 45 50 53 56 61 64 80 83 113 0
43 45 50 54 56 61 65 80 84 114 0
43 45 51 52 56 62 63 81 82 115 0
43 45 51 53 56 62 64 81 83 116 0
43 45 51 54 56 62 65 81 84 117 0
43 45 52 53 56 63 64 82 83 118 0
43 45 52 54 56 63 65 82 84 119 0
43 45 53 54 56 64 65 83 84 120 0
43 46 47 48 57 58 59 85 86 93 0
43 46 47 49 57 58 60 85 87 94 0
43 46 47 50 57 58 61 85 88 95 0
43 46 47 51 57 58 62 85 89 96 0
43 46 47 52 57 58 63 85 90 97 0
43 46 47 53 57 58 64 85 91 98 0
43 46 47 54 57 58 65 85 92 99 0
43 46 48 49 57 59 60 86 87 100 0
43 46 48 50 57 59 61 86 88 101 0
43 46 48 51 57 59 62 86 89 102 0
43 46 48 52 57 59 63 86 90 103 0
43 46 48 53 57 59 64 86 91 104 0
43 46 48 54 57 59 65 86 92 105 0
43 46 49 50 57 60 61 87 88 106 0
43 46 49 51 57 60 62 87 89 107 0
43 46 49 52 57 60 63 87 90 108 0
43 46 49 53 57 60 64 87 91 109 0
43 46 49 54 57 60 65 87 92 110 0
43 46 50 51 57 61 62 88 89 111 0
43 46 50 52 57 61 63 88 90 112 0
43 46 50 53 57 61 64 88 91 113 0
43 46 50 54 57 61 65 88 92 114 0
43 46 51 52 57 62 63 89 90 115 0
43 46 51 53 57 62 64 89 91 116 0
43 46 51 54 57 62 65 89 92 117 0
43 46 52 53 57 63 64 90 91 118 0
43 46 52 54 57 63 65 90 92 119 0
43 46 53 54 57 64 65 91 92 120 0
43 47 48 49 58 59 60 93 94 100 0
43 47 48 50 58 59 61 93 95 101 0
43 47 48 51 58 59 62 93 96 102 0
43 47 48 52 58 59 63 93 97 103 0
43 47 48 53 58 59 64 93 98 104 0
43 47 48 54 58 59 65 93 99 105 0
43 47 49 50 58 60 61 94 95 106 0
43 47 49 51 58 60 62 94 96 107 0
43 47 49 52 58 60 63 94 97 108 0
43 47 49 53 58 60 64 94 98 109 0
43 47 49 54 58 60 65 94 99 110 0
43 47 50 51 58 61 62 95 96 111 0
43 47 50 52 58 61 63 95 97 112 0
43 47 50 53 58 61 64 95 98 113 0
43 47 50 54 58 61 65 95 99 114 0
43 47 51 52 58 62 63 96 97 115 0
43 47 51 53 58 62 64 96 98 116 0
43 47 51 54 58 62 65 96 99 117 0
43 47 52 53 58 63 64 97 98 118 0
43 47 52 54 58 63 65 97 99 119 0
43 47 53 54 58 64 65 98 99 120 0
43 48 49 50 59 60 61 100 101 106 0
43 48 49 51 59 60 62 100 102 107 0
43 48 49 52 59 60 63 100 103 108 0
43 48 49 53 59 60 64 100 104 109 0
43 48 49 54 59 60 65 100 105 110 0
43 48 50 51 59 61 62 101 102 111 0
43 48 50 52 59 61 63 101 103 112 0
43 48 50 53 59 61 64 101 104 113 0
43 48 50 54 59 61 65 101 105 114 0
43 48 51 52 59 62 63 102 103 115 0
43 48 51 53 59 62 64 102 104 116 0
43 48 51 54 59 62 65 102 105 117 0
43 48 52 53 59 63 64 103 104 118 0
43 48 52 54 59 63 65 103 105 119 0
43 48 53 54 59 64 65 104 105 120 0
43 49 50 51 60 61 62 106 107 111 0
43 49 50 52 60 61 63 106 108 112 0
43 49 50 53 60 61 64 106 109 113 0
43 49 50 54 60 61 65 106 110 114 0
43 49 51 52 60 62 63 107 108 115 0
43 49 51 53 60 62 64 107 109 116 0
43 49 51 54 60 62 65 107 110 117 0
43 49 52 53 60 63 64 108 109 118 0
43 49 52 54 60 63 65 108 110 119 0
43 49 53 54 60 64 65 109 110 120 0
43 50 51 52 61 62 63 111 112 115 0
43 50 51 53 61 62 64 111 113 116 0
43 50 51 54 61 62 65 111 114 117 0
43 50 52 53 61 63 64 112 113 118 0
43 50 52 54 61 63 65 112 114 119 0
43 50 53 54 61 64 65 113 114 120 0
43 51 52 53 62 63 64 115 116 118 0
43 51 52 54 62 63 65 115 117 119 0
43 51 53 54 62 64 65 116 117 120 0
43 52 53 54 63 64 65 118 119 120 0
44 45 46 47 66 67 68 76 77 85 0
44 45 46 48 66 67 69 76 78 86 0
44 45 46 49 66 67 70 76 79 87 0
44 45 46 50 66 67 71 76 80 88 0
44 45 46 51 66 67 72 76 81 89 0
44 45 46 52 66 67 73 76 82 90 0
44 45 46 53 66 67 74 76 83 91 0
44 45 46 54 66 67 75 76 84 92 0
44 45 47 48 66 68 69 77 78 93 0
44 45 47 49 66 68 70 77 79 94 0
44 45 47 50 66 68 71 77 80 95 0
44 45 47 51 66 68 72 77 81 96 0
44 45 47 52 66 68 73 77 82 97 0
44 45 47 53 66 68 74 77 83 98 0
44 45 47 54 66 68 75 77 84 99 0
44 45 48 49 66 69 70 78 79 100 0
44 45 48 50 66 69 71 78 80 101 0
44 45 48 51 66 69 72 78 81 102 0
44 45 48 52 66 69 73 78 82 103 0
44 45 48 53 66 69 74 78 83 104 0
44 45 48 54 66 69 75 78 84 105 0
44 45 49 50 66 70 71 79 80 106 0
44 45 49 51 66 70 72 79 81 107 0
44 45 49 52 66 70 73 79 82 108 0
44 45 49 53 66 70 74 79 83 109 0
44 45 49 54 66 70 75 79 84 110 0
44 45 50 51 66 71 72 80 81 111 0
44 45 50 52 66 71 73 80 82 112 0
44 45 50 53 66 71 74 80 83 113 0
44 45 50 54 66 71 75 80 84 114 0
44 45 51 52 66 72 73 81 82 115 0
44 45 51 53 66 72 74 81 83 116 0
44 45 51 54 66 72 75 81 84 117 0
44 45 52 53 66 73 74 82 83 118 0
44 45 52 54 66 73 75 82 84 119 0
44 45 53 54 66 74 75 83 84 120 0
44 46 47 48 67 68 69 85 86 93 0
44 46 47 49 67 68 70 85 87 94 0
44 46 47 50 67 68 71 85 88 95 0
44 46 47 51 67 68 72 85 89 96 0
44 46 47 52 67 68 73 85 90 97 0
44 46 47 53 67 68 74 85 91 98 0
44 46 47 54 67 68 75 85 92 99 0
44 46 48 49 67 69 70 86 87 100 0
44 46 48 50 67 69 71 86 88 101 0
44 46 48 51 67 69 72 86 89 102 0
44 46 48 52 67 69 73 86 90 103 0
44 46 48 53 67 69 74 86 91 104 0
44 46 48 54 67 69 75 86 92 105 0
44 46 49 50 67 70 71 87 88 106 0
44 46 49 51 67 70 72 87 89 107 0
44 46 49 52 67 70 73 87 90 108 0
44 46 49 53 67 70 74 87 91 109 0
44 46 49 54 67 70 75 87 92 110 0
44 46 50 51 67 71 72 88 89 111 0
44 46 50 52 67 71 73 88 90 112 0
44 46 50 53 67 71 74 88 91 113 0
44 46 50 54 67 71 75 88 92 114 0
44 46 51 52 67 72 73 89 90 115 0
44 46 51 53 67 72 74 89 91 116 0
44 46 51 54 67 72 75 89 92 117 0
44 46 52 53 67 73 74 90 91 118 0
44 46 52 54 67 73 75 90 92 119 0
44 46 53 54 67 74 75 91 92 120 0
44 47 48 49 68 69 70 93 94 100 0
44 47 48 50 68 69 71 93 95 101 0
44 47 48 51 68 69 72 93 96 102 0
44 47 48 52 68 69 73 93 97 103 0
44 47 48 53 68 69 74 93 98 104 0
44 47 48 54 68 69 75 93 99 105 0
44 47 49 50 68 70 71 94 95 106 0
44 47 49 51 68 70 72 94 96 107 0
44 47 49 52 68 70 73 94 97 108 0
44 47 49 53 68 70 74 94 98 109 0
44 47 49 54 68 70 75 94 99 110 0
44 47 50 51 68 71 72 95 96 111 0
44 47 50 52 68 71 73 95 97 112 0
44 47 50 53 68 71 74 95 98 113 0
44 47 50 54 68 71 75 95 99 114 0
44 47 51 52 68 72 73 96 97 115 0
44 47 51 53 68 72 74 96 98 116 0
44 47 51 54 68 72 75 96 99 117 0
44 47 52 53 68 73 74 97 98 118 0
44 47 52 54 68 73 75 97 99 119 0
44 47 53 54 68 74 75 98 99 120 0
44 48 49 50 69 70 71 100 101 106 0
44 48 49 51 69 70 72 100 102 107 0
44 48 49 52 69 70 73 100 103 108 0
44 48 49 53 69 70 74 100 104 109 0
44 48 49 54 69 70 75 100 105 110 0
44 48 50 51 69 71 72 101 102 111 0
44 48 50 52 69 71 73 101 103 112 0
44 48 50 53 69 71 74 101 104 113 0
44 48 50 54 69 71 75 101 105 114 0
44 48 51 52 69 72 73 102 103 115 0
44 48 51 53 69 72 74 102 104 116 0
44 48 51 54 69 72 75 102 105 117 0
44 48 52 53 69 73 74 103 104 118 0
44 48 52 54 69 73 75 103 105 119 0
44 48 53 54 69 74 75 104 105 120 0
44 49 50 51 70 71 72 106 107 111 0
44 49 50 52 70 71 73 106 108 112 0
44 49 50 53 70 71 74 106 109 113 0
44 49 50 54 70 71 75 106 110 114 0
44 49 51 52 70 72 73 107 108 115 0
44 49 51 53 70 72 74 107 109 116 0
44 49 51 54 70 72 75 107 110 117 0
44 49 52 53 70 73 74 108 109 118 0
44 49 52 54 70 73 75 108 110 119 0
44 49 53 54 70 74 75 109 110 120 0
44 50 51 52 71 72 73 111 112 115 0
44 50 51 53 71 72 74 111 113 116 0
44 50 51 54 71 72 75 111 114 117 0
44 50 52 53 71 73 74 112 113 118 0
44 50 52 54 71 73 75 112 114 119 0
44 50 53 54 71 74 75 113 114 120 0
44 51 52 53 72 73 74 115 116 118 0
44 51 52 54 72 73 75 115 117 119 0
44 51 53 54 72 74 75 116 117 120 0
44 52 53 54 73 74 75 118 119 120 0
45 46 47 48 76 77 78 85 86 93 0
45 46 47 49 76 77 79 85 87 94 0
45 46 47 50 76 77 80 85 88 95 0
45 46 47 51 76 77 81 85 89 96 0
45 46 47 52 76 77 82 85 90 97 0
45 46 47 53 76 77 83 85 91 98 0
45 46 47 54 76 77 84 85 92 99 0
45 46 48 49 76 78 79 86 87 100 0
45 46 48 50 76 78 80 86 88 101 0
45 46 48 51 76 78 81 86 89 102 0
45 46 48 52 76 78 82 86 90 103 0
45 46 48 53 76 78 83 86 91 104 0
45 46 48 54 76 78 84 86 92 105 0
45 46 49 50 76 79 80 87 88 106 0
45 46 49 51 76 79 81 87 89 107 0
45 46 49 52 76 79 82 87 90 108 0
45 46 49 53 76 79 83 87 91 109 0
45 46 49 54 76 79 84 87 92 110 0
45 46 50 51 76 80 81 88 89 111 0
45 46 50 52 76 80 82 88 90 112 0
45 46 50 53 76 80 83 88 91 113 0
45 46 50 54 76 80 84 88 92 114 0
45 46 51 52 76 81 82 89 90 115 0
45 46 51 53 76 81 83 89 91 116 0
45 46 51 54 76 81 84 89 92 117 0
45 46 52 53 76 82 83 90 91 118 0
45 46 52 54 76 82 84 90 92 119 0
45 46 53 54 76 83 84 91 92 120 0
45 47 48 49 77 78 79 93 94 100 0
45 47 48 50 77 78 80 93 95 101 0
45 47 48 51 77 78 81 93 96 102 0
45 47 48 52 77 78 82 93 97 103 0
45 47 48 53 77 78 83 93 98 104 0
45 47 48 54 77 78 84 93 99 105 0
45 47 49 50 77 79 80 94 95 106 0
45 47 49 51 77 79 81 94 96 107 0
45 47 49 52 77 79 82 94 97 108 0
45 47 49 53 77 79 83 94 98 109 0
45 47 49 54 77 79 84 94 99 110 0
45 47 50 51 77 80 81 95 96 111 0
45 47 50 52 77 80 82 95 97 112 0
45 47 50 53 77 80 83 95 98 113 0
45 47 50 54 77 80 84 95 99 114 0
45 47 51 52 77 81 82 96 97 115 0
45 47 51 53 77 81 83 96 98 116 0
45 47 51 54 77 81 84 96 99 117 0
45 47 52 53 77 82 83 97 98 118 0
45 47 52 54 77 82 84 97 99 119 0
45 47 53 54 77 83 84 98 99 120 0
45 48 49 50 78 79 80 100 101 106 0
45 48 49 51 78 79 81 100 102 107 0
45 48 49 52 78 79 82 100 103 108 0
45 48 49 53 78 79 83 100 104 109 0
45 48 49 54 78 79 84 100 105 110 0
45 48 50 51 78 80 81 101 102 111 0
45 48 50 52 78 80 82 101 103 112 0
45 48 50 53 78 80 83 101 104 113 0
45 48 50 54 78 80 84 101 105 114 0
45 48 51 52 78 81 82 102 103 115 0
45 48 51 53 78 81 83 102 104 116 0
45 48 51 54 78 81 84 102 105 117 0
45 48 52 53 78 82 83 103 104 118 0
45 48 52 54 78 82 84 103 105 119 0
45 48 53 54 78 83 84 104 105 120 0
45 49 50 51 79 80 81 106 107 111 0
45 49 50 52 79 80 82 106 108 112 0
45 49 50 53 79 80 83 106 109 113 0
45 49 50 54 79 80 84 106 110 114 0
45 49 51 52 79 81 82 107 108 115 0
45 49 51 53 79 81 83 107 109 116 0
45 49 51 54 79 81 84 107 110 117 0
45 49 52 53 79 82 83 108 109 118 0
45 49 52 54 79 82 84 108 110 119 0
45 49 53 54 79 83 84 109 110 120 0
45 50 51 52 80 81 82 111 112 115 0
45 50 51 53 80 81 83 111 113 116 0
45 50 51 54 80 81 84 111 114 117 0
45 50 52 53 80 82 83 112 113 118 0
45 50 52 54 80 82 84 112 114 119 0
45 50 53 54 80 83 84 113 114 120 0
45 51 52 53 81 82 83 115 116 118 0
45 51 52 54 81 82 84 115 117 119 0
45 51 53 54 81 83 84 116 117 120 0
45 52 53 54 82 83 84 118 119 120 0
46 47 48 49 85 86 87 93 94 100 0
46 47 48 50 85 86 88 93 95 101 0
46 47 48 51 85 86 89 93 96 102 0
46 47 48 52 85 86 90 93 97 103 0
46 47 48 53 85 86 91 93 98 104 0
46 47 48 54 85 86 92 93 99 105 0
46 47 49 50 85 87 88 94 95 106 0
46 47 49 51 85 87 89 94 96 107 0
46 47 49 52 85 87 90 94 97 108 0
46 47 49 53 85 87 91 94 98 109 0
46 47 49 54 85 87 92 94 99 110 0
46 47 50 51 85 88 89 95 96 111 0
46 47 50 52 85 88 90 95 97 112 0
46 47 50 53 85 88 91 95 98 113 0
46 47 50 54 85 88 92 95 99 114 0
46 47 51 52 85 89 90 96 97 115 0
46 47 51 53 85 89 91 96 98 116 0
46 47 51 54 85 89 92 96 99 117 0
46 47 52 53 85 90 91 97 98 118 0
46 47 52 54 85 90 92 97 99 119 0
46 47 53 54 85 91 92 98 99 120 0
46 48 49 50 86 87 88 100 101 106 0
46 48 49 51 86 87 89 100 102 107 0
46 48 49 52 86 87 90 100 103 108 0
46 48 49 53 86 87 91 100 104 109 0
46 48 49 54 86 87 92 100 105 110 0
46 48 50 51 86 88 89 101 102 111 0
46 48 50 52 86 88 90 101 103 112 0
46 48 50 53 86 88 91 101 104 113 0
46 48 50 54 86 88 92 101 105 114 0
46 48 51 52 86 89 90 102 103 115 0
46 48 51 53 86 89 91 102 104 116 0
46 48 51 54 86 89 92 102 105 117 0
46 48 52 53 86 90 91 103 104 118 0
46 48 52 54 86 90 92 103 105 119 0
46 48 53 54 86 91 92 104 105 120 0
46 49 50 51 87 88 89 106 107 111 0
46 49 50 52 87 88 90 106 108 112 0
46 49 50 53 87 88 91 106 109 113 0
46 49 50 54 87 88 92 106 110 114 0
46 49 51 52 87 89 90 107 108 115 0
46 49 51 53 87 89 91 107 109 116 0
46 49 51 54 87 89 92 107 110 117 0
46 49 52 53 87 90 91 108 109 118 0
46 49 52 54 87 90 92 108 110 119 0
46 49 53 54 87 91 92 109 110 120 0
46 50 51 52 88 89 90 111 112 115 0
46 50 51 53 88 89 91 111 113 116 0
46 50 51 54 88 89 92 111 114 117 0
46 50 52 53 88 90 91 112 113 118 0
46 50 52 54 88 90 92 112 114 119 0
46 50 53 54 88 91 92 113 114 120 0
46 51 52 53 89 90 91 115 116 118 0
46 51 52 54 89 90 92 115 117 119 0
46 51 53 54 89 91 92 116 117 120 0
46 52 53 54 90 91 92 118 119 120 0
47 48 49 50 93 94 95 100 101 106 0
47 48 49 51 93 94 96 100 102 107 0
47 48 49 52 93 94 97 100 103 108 0
47 48 49 53 93 94 98 100 104 109 0
47 48 49 54 93 94 99 100 105 110 0
47 48 50 51 93 95 96 101 102 111 0
47 48 50 52 93 95 97 101 103 112 0
47 48 50 53 93 95 98 101 104 113 0
47 48 50 54 93 95 99 101 105 114 0
47 48 51 52 93 96 97 102 103 115 0
47 48 51 53 93 96 98 102 104 116 0
47 48 51 54 93 96 99 102 105 117 0
47 48 52 53 93 97 98 103 104 118 0
47 48 52 54 93 97 99 103 105 119 0
47 48 53 54 93 98 99 104 105 120 0
47 49 50 51 94 95 96 106 107 111 0
47 49 50 52 94 95 97 106 108 112 0
47 49 50 53 94 95 98 106 109 113 0
47 49 50 54 94 95 99 106 110 114 0
47 49 51 52 94 96 97 107 108 115 0
47 49 51 53 94 96 98 107 109 116 0
47 49 51 54 94 96 99 107 110 117 0
47 49 52 53 94 97 98 108 109 118 0
47 49 52 54 94 97 99 108 110 119 0
47 49 53 54 94 98 99 109 110 120 0
47 50 51 52 95 96 97 111 112 115 0
47 50 51 53 95 96 98 111 113 116 0
47 50 51 54 95 96 99 111 114 117 0
47 50 52 53 95 97 98 112 113 118 0
47 50 52 54 95 97 99 112 114 119 0
47 50 53 54 95 98 99 113 114 120 0
47 51 52 53 96 97 98 115 116 118 0
47 51 52 54 96 97 99 115 117 119 0
47 51 53 54 96 98 99 116 117 120 0
47 52 53 54 97 98 99 118 119 120 0
48 49 50 51 100 101 102 106 107 111 0
48 49 50 52 100 101 103 106 108 112 0
48 49 50 53 100 101 104 106 109 113 0
48 49 50 54 100 101 105 106 110 114 0
48 49 51 52 100 102 103 107 108 115 0
48 49 51 53 100 102 104 107 109 116 0
48 49 51 54 100 102 105 107 110 117 0
48 49 52 53 100 103 104 108 109 118 0
48 49 52 54 100 103 105 108 110 119 0
48 49 53 54 100 104 105 109 110 120 0
48 50 51 52 101 102 103 111 112 115 0
48 50 51 53 101 102 104 111 113 116 0
48 50 51 54 101 102 105 111 114 117 0
48 50 52 53 101 103 104 112 113 118 0
48 50 52 54 101 103 105 112 114 119 0
48 50 53 54 101 104 105 113 114 120 0
48 51 52 53 102 103 104 115 116 118 0
48 51 52 54 102 103 105 115 117 119 0
48 51 53 54 102 104 105 116 117 120 0
48 52 53 54 103 104 105 118 119 120 0
49 50 51 52 106 107 108 111 112 115 0
49 50 51 53 106 107 109 111 113 116 0
49 50 51 54 106 107 110 111 114 117 0
49 50 52 53 106 108 109 112 113 118 0
49 50 52 54 106 108 110 112 114 119 0
49 50 53 54 106 109 110 113 114 120 0
49 51 52 53 107 108 109 115 116 118 0
49 51 52 54 107 108 110 115 117 119 0
49 51 53 54 107 109 110 116 117 120 0
49 52 53 54 108 109 110 118 119 120 0
50 51 52 53 111 112 113 115 116 118 0
50 51 52 54 111 112 114 115 117 119 0
50 51 53 54 111 113 114 116 117 120 0
50 52 53 54 112 113 114 118 119 120 0
51 52 53 54 115 116 117 118 119 120 0
55 56 57 58 66 67 68 76 77 85 0
55 56 57 59 66 67 69 76 78 86 0
55 56 57 60 66 67 70 76 79 87 0
55 56 57 61 66 67 71 76 80 88 0
55 56 57 62 66 67 72 76 81 89 0
55 56 57 63 66 67 73 76 82 90 0
55 56 57 64 66 67 74 76 83 91 0
55 56 57 65 66 67 75 76 84 92 0
55 56 58 59 66 68 69 77 78 93 0
55 56 58 60 66 68 70 77 79 94 0
55 56 58 61 66 68 71 77 80 95 0
55 56 58 62 66 68 72 77 81 96 0
55 56 58 63 66 68 73 77 82 97 0
55 56 58 64 66 68 74 77 83 98 0
55 56 58 65 66 68 75 77 84 99 0
55 56 59 60 66 69 70 78 79 100 0
55 56 59 61 66 69 71 78 80 101 0
55 56 59 62 66 69 72 78 81 102 0
55 56 59 63 66 69 73 78 82 103 0
55 56 59 64 66 69 74 78 83 104 0
55 56 59 65 66 69 75 78 84 105 0
55 56 60 61 66 70 71 79 80 106 0
55 56 60 62 66 70 72 79 81 107 0
55 56 60 63 66 70 73 79 82 108 0
55 56 60 64 66 70 74 79 83 109 0
55 56 60 65 66 70 75 79 84 110 0
55 56 61 62 66 71 72 80 81 111 0
55 56 61 63 66 71 73 80 82 112 0
55 56 61 64 66 71 74 80 83 113 0
55 56 61 65 66 71 75 80 84 114 0
55 56 62 63 66 72 73 81 82 115 0
55 56 62 64 66 72 74 81 83 116 0
55 56 62 65 66 72 75 81 84 117 0
55 56 63 64 66 73 74 82 83 118 0
55 56 63 65 66 73 75 82 84 119 0
55 56 64 65 66 74 75 83 84 120 0
55 57 58 59 67 68 69 85 86 93 0
55 57 58 60 67 68 70 85 87 94 0
55 57 58 61 67 68 71 85 88 95 0
55 57 58 62 67 68 72 85 89 96 0
55 57 58 63 67 68 73 85 90 97 0
55 57 58 64 67 68 74 85 91 98 0
55 57 58 65 67 68 75 85 92 99 0
55 57 59 60 67 69 70 86 87 100 0
55 57 59 61 67 69 71 86 88 101 0
55 57 59 62 67 69 72 86 89 102 0
55 57 59 63 67 69 73 86 90 103 0
55 57 59 64 67 69 74 86 91 104 0
55 57 59 65 67 69 75 86 92 105 0
55 57 60 61 67 70 71 87 88 106 0
55 57 60 62 67 70 72 87 89 107 0
55 57 60 63 67 70 73 87 90 108 0
55 57 60 64 67 70 74 87 91 109 0
55 57 60 65 67 70 75 87 92 110 0
55 57 61 62 67 71 72 88 89 111 0
55 57 61 63 67 71 73 88 90 112 0
55 57 61 64 67 71 74 88 91 113 0
55 57 61 65 67 71 75 88 92 114 0
55 57 62 63 67 72 73 89 90 115 0
55 57 62 64 67 72 74 89 91 116 0
55 57 62 65 67 72 75 89 92 117 0
55 57 63 64 67 73 74 90 91 118 0
55 57 63 65 67 73 75 90 92 119 0
55 57 64 65 67 74 75 91 92 120 0
55 58 59 60 68 69 70 93 94 100 0
55 58 59 61 68 69 71 93 95 101 0
55 58 59 62 68 69 72 93 96 102 0
55 58 59 63 68 69 73 93 97 103 0
55 58 59 64 68 69 74 93 98 104 0
55 58 59 65 68 69 75 93 99 105 0
55 58 60 61 68 70 71 94 95 106 0
55 58 60 62 68 70 72 94 96 107 0
55 58 60 63 68 70 73 94 97 108 0
55 58 60 64 68 70 74 94 98 109 0
55 58 60 65 68 70 75 94 99 110 0
55 58 61 62 68 71 72 95 96 111 0
55 58 61 63 68 71 73 95 97 112 0
55 58 61 64 68 71 74 95 98 113 0
55 58 61 65 68 71 75 95 99 114 0
55 58 62 63 68 72 73 96 97 115 0
55 58 62 64 68 72 74 96 98 116 0
55 58 62 65 68 72 75 96 99 117 0
55 58 63 64 68 73 74 97 98 118 0
55 58 63 65 68 73 75 97 99 119 0
55 58 64 65 68 74 75 98 99 120 0
55 59 60 61 69 70 71 100 101 106 0
55 59 60 62 69 70 72 100 102 107 0
55 59 60 63 69 70 73 100 103 108 0
55 59 60 64 69 70 74 100 104 109 0
55 59 60 65 69 70 75 100 105 110 0
55 59 61 62 69 71 72 101 102 111 0
55 59 61 63 69 71 73 101 103 112 0
55 59 61 64 69 71 74 101 104 113 0
55 59 61 65 69 71 75 101 105 114 0
55 59 62 63 69 72 73 102 103 115 0
55 59 62 64 69 72 74 102 104 116 0
55 59 62 65 69 72 75 102 105 117 0
55 59 63 64 69 73 74 103 104 118 0
55 59 63 65 69 73 75 103 105 119 0
55 59 64 65 69 74 75 104 105 120 0
55 60 61 62 70 71 72 106 107 111 0
55 60 61 63 70 71 73 106 108 112 0
55 60 61 64 70 71 74 106 109 113 0
55 60 61 65 70 71 75 106 110 114 0
55 60 62 63 70 72 73 107 108 115 0
55 60 62 64 70 72 74 107 109 116 0
55 60 62 65 70 72 75 107 110 117 0
55 60 63 64 70 73 74 108 109 118 0
55 60 63 65 70 73 75 108 110 119 0
55 60 64 65 70 74 75 109 110 120 0
55 61 62 63 71 72 73 111 112 115 0
55 61 62 64 71 72 74 111 113 116 0
55 61 62 65 71 72 75 111 114 117 0
55 61 63 64 71 73 74 112 113 118 0
55 61 63 65 71 73 75 112 114 119 0
55 61 64 65 71 74 75 113 114 120 0
55 62 63 64 72 73 74 115 116 118 0
55 62 63 65 72 73 75 115 117 119 0
55 62 64 65 72 74 75 116 117 120 0
55 63 64 65 73 74 75 118 119 120 0
56 57 58 59 76 77 78 85 86 93 0
56 57 58 60 76 77 79 85 87 94 0
56 57 58 61 76 77 80 85 88 95 0
56 57 58 62 76 77 81 85 89 96 0
56 57 58 63 76 77 82 85 90 97 0
56 57 58 64 76 77 83 85 91 98 0
56 57 58 65 76 77 84 85 92 99 0
56 57 59 60 76 78 79 86 87 100 0
56 57 59 61 76 78 80 86 88 101 0
56 57 59 62 76 78 81 86 89 102 0
56 57 59 63 76 78 82 86 90 103 0
56 57 59 64 76 78 83 86 91 104 0
56 57 59 65 76 78 84 86 92 105 0
56 57 60 61 76 79 80 87 88 106 0
56 57 60 62 76 79 81 87 89 107 0
56 57 60 63 76 79 82 87 90 108 0
56 57 60 64 76 79 83 87 91 109 0
56 57 60 65 76 79 84 87 92 110 0
56 57 61 62 76 80 81 88 89 111 0
56 57 61 63 76 80 82 88 90 112 0
56 57 61 64 76 80 83 88 91 113 0
56 57 61 65 76 80 84 88 92 114 0
56 57 62 63 76 81 82 89 90 115 0
56 57 62 64 76 81 83 89 91 116 0
56 57 62 65 76 81 84 89 92 117 0
56 57 63 64 76 82 83 90 91 118 0
56 57 63 65 76 82 84 90 92 119 0
56 57 64 65 76 83 84 91 92 120 0
56 58 59 60 77 78 79 93 94 100 0
56 58 59 61 77 78 80 93 95 101 0
56 58 59 62 77 78 81 93 96 102 0
56 58 59 63 77 78 82 93 97 103 0
56 58 59 64 77 78 83 93 98 104 0
56 58 59 65 77 78 84 93 99 105 0
56 58 60 61 77 79 80 94 95 106 0
56 58 60 62 77 79 81 94 96 107 0
56 58 60 63 77 79 82 94 97 108 0
56 58 60 64 77 79 83 94 98 109 0
56 58 60 65 77 79 84 94 99 110 0
56 58 61 62 77 80 81 95 96 111 0
56 58 61 63 77 80 82 95 97 112 0
56 58 61 64 77 80 83 95 98 113 0
56 58 61 65 77 80 84 95 99 114 0
56 58 62 63 77 81 82 96 97 115 0
56 58 62 64 77 81 83 96 98 116 0
56 58 62 65 77 81 84 96 99 117 0
56 58 63 64 77 82 83 97 98 118 0
56 58 63 65 77 82 84 97 99 119 0
56 58 64 65 77 83 84 98 99 120 0
56 59 60 61 78 79 80 100 101 106 0
56 59 60 62 78 79 81 100 102 107 0
56 59 60 63 78 79 82 100 103 108 0
56 59 60 64 78 79 83 100 104 109 0
56 59 60 65 78 79 84 100 105 110 0
56 59 61 62 78 80 81 101 102 111 0
56 59 61 63 78 80 82 101 103 112 0
56 59 61 64 78 80 83 101 104 113 0
56 59 61 65 78 80 84 101 105 114 0
56 59 62 63 78 81 82 102 103 115 0
56 59 62 64 78 81 83 102 104 116 0
56 59 62 65 78 81 84 102 105 117 0
56 59 63 64 78 82 83 103 104 118 0
56 59 63 65 78 82 84 103 105 119 0
56 59 64 65 78 83 84 104 105 120 0
56 60 61 62 79 80 81 106 107 111 0
56 60 61 63 79 80 82 106 108 112 0
56 60 61 64 79 80 83 106 109 113 0
56 60 61 65 79 80 84 106 110 114 0
56 60 62 63 79 81 82 107 108 115 0
56 60 62 64 79 81 83 107 109 116 0
56 60 62 65 79 81 84 107 110 117 0
56 60 63 64 79 82 83 108 109 118 0
56 60 63 65 79 82 84 108 110 119 0
56 60 64 65 79 83 84 109 110 120 0
56 61 62 63 80 81 82 111 112 115 0
56 61 62 64 80 81 83 111 113 116 0
56 61 62 65 80 81 84 111 114 117 0
56 61 63 64 80 82 83 112 113 118 0
56 61 63 65 80 82 84 112 114 119 0
56 61 64 65 80 83 84 113 114 120 0
56 62 63 64 81 82 83 115 116 118 0
56 62 63 65 81 82 84 115 117 119 0
56 62 64 65 81 83 84 116 117 120 0
56 63 64 65 82 83 84 118 119 120 0
57 58 59 60 85 86 87 93 94 100 0
57 58 59 61 85 86 88 93 95 101 0
57 58 59 62 85 86 89 93 96 102 0
57 58 59 63 85 86 90 93 97 103 0
57 58 59 64 85 86 91 93 98 104 0
57 58 59 65 85 86 92 93 99 105 0
57 58 60 61 85 87 88 94 95 106 0
57 58 60 62 85 87 89 94 96 107 0
57 58 60 63 85 87 90 94 97 108 0
57 58 60 64 85 87 91 94 98 109 0
57 58 60 65 85 87 92 94 99 110 0
57 58 61 62 85 88 89 95 96 111 0
57 58 61 63 85 88 90 95 97 112 0
57 58 61 64 85 88 91 95 98 113 0
57 58 61 65 85 88 92 95 99 114 0
57 58 62 63 85 89 90 96 97 115 0
57 58 62 64 85 89 91 96 98 116 0
57 58 62 65 85 89 92 96 99 117 0
57 58 63 64 85 90 91 97 98 118 0
57 58 63 65 85 90 92 97 99 119 0
57 58 64 65 85 91 92 98 99 120 0
57 59 60 61 86 87 88 100 101 106 0
57 59 60 62 86 87 89 100 102 107 0
57 59 60 63 86 87 90 100 103 108 0
57 59 60 64 86 87 91 100 104 109 0
57 59 60 65 86 87 92 100 105 110 0
57 59 61 62 86 88 89 101 102 111 0
57 59 61 63 86 88 90 101 103 112 0
57 59 61 64 86 88 91 101 104 113 0
57 59 61 65 86 88 92 101 105 114 0
57 59 62 63 86 89 90 102 103 115 0
57 59 62 64 86 89 91 102 104 116 0
57 59 62 65 86 89 92 102 105 117 0
57 59 63 64 86 90 91 103 104 118 0
57 59 63 65 86 90 92 103 105 119 0
57 59 64 65 86 91 92 104 105 120 0
57 60 61 62 87 88 89 106 107 111 0
57 60 61 63 87 88 90 106 108 112 0
57 60 61 64 87 88 91 106 109 113 0
57 60 61 65 87 88 92 106 110 114 0
57 60 62 63 87 89 90 107 108 115 0
57 60 62 64 87 89 91 107 109 116 0
57 60 62 65 87 89 92 107 110 117 0
57 60 63 64 87 90 91 108 109 118 0
57 60 63 65 87 90 92 108 110 119 0
57 60 64 65 87 91 92 109 110 120 0
57 61 62 63 88 89 90 111 112 115 0
57 61 62 64 88 89 91 111 113 116 0
57 61 62 65 88 89 92 111 114 117 0
57 61 63 64 88 90 91 112 113 118 0
57 61 63 65 88 90 92 112 114 119 0
57 61 64 65 88 91 92 113 114 120 0
57 62 63 64 89 90 91 115 116 118 0
57 62 63 65 89 90 92 115 117 119 0
57 62 64 65 89 91 92 116 117 120 0
57 63 64 65 90 91 92 118 119 120 0
58 59 60 61 93 94 95 100 101 106 0
58 59 60 62 93 94 96 100 102 107 0
58 59 60 63 93 94 97 100 103 108 0
58 59 60 64 93 94 98 100 104 109 0
58 59 60 65 93 94 99 100 105 110 0
58 59 61 62 93 95 96 101 102 111 0
58 59 61 63 93 95 97 101 103 112 0
58 59 61 64 93 95 98 101 104 113 0
58 59 61 65 93 95 99 101 105 114 0
58 59 62 63 93 96 97 102 103 115 0
58 59 62 64 93 96 98 102 104 116 0
58 59 62 65 93 96 99 102 105 117 0
58 59 63 64 93 97 98 103 104 118 0
58 59 63 65 93 97 99 103 105 119 0
58 59 64 65 93 98 99 104 105 120 0
58 60 61 62 94 95 96 106 107 111 0
58 60 61 63 94 95 97 106 108 112 0
58 60 61 64 94 95 98 106 109 113 0
58 60 61 65 94 95 99 106 110 114 0
58 60 62 63 94 96 97 107 108 115 0
58 60 62 64 94 96 98 107 109 116 0
58 60 62 65 94 96 99 107 110 117 0
58 60 63 64 94 97 98 108 109 118 0
58 60 63 65 94 97 99 108 110 119 0
58 60 64 65 94 98 99 109 110 120 0
58 61 62 63 95 96 97 111 112 115 0
58 61 62 64 95 96 98 111 113 116 0
58 61 62 65 95 96 99 111 114 117 0
58 61 63 64 95 97 98 112 113 118 0
58 61 63 65 95 97 99 112 114 119 0
58 61 64 65 95 98 99 113 114 120 0
58 62 63 64 96 97 98 115 116 118 0
58 62 63 65 96 97 99 115 117 119 0
58 62 64 65 96 98 99 116 117 120 0
58 63 64 65 97 98 99 118 119 120 0
59 60 61 62 100 101 102 106 107 111 0
59 60 61 63 100 101 103 106 108 112 0
59 60 61 64 100 101 104 106 109 113 0
59 60 61 65 100 101 105 106 110 114 0
59 60 62 63 100 102 103 107 108 115 0
59 60 62 64 100 102 104 107 109 116 0
59 60 62 65 100 102 105 107 110 117 0
59 60 63 64 100 103 104 108 109 118 0
59 60 63 65 100 103 105 108 110 119 0
59 60 64 65 100 104 105 109 110 120 0
59 61 62 63 101 102 103 111 112 115 0
59 61 62 64 101 102 104 111 113 116 0
59 61 62 65 101 102 105 111 114 117 0
59 61 63 64 101 103 104 112 113 118 0
59 61 63 65 101 103 105 112 114 119 0
59 61 64 65 101 104 105 113 114 120 0
59 62 63 64 102 103 104 115 116 118 0
59 62 63 65 102 103 105 115 117 119 0
59 62 64 65 102 104 105 116 117 120 0
59 63 64 65 103 104 105 118 119 120 0
60 61 62 63 106 107 108 111 112 115 0
60 61 62 64 106 107 109 111 113 116 0
60 61 62 65 106 107 110 111 114 117 0
60 61 63 64 106 108 109 112 113 118 0
60 61 63 65 106 108 110 112 114 119 0
60 61 64 65 106 109 110 113 114 120 0
60 62 63 64 107 108 109 115 116 118 0
60 62 63 65 107 108 110 115 117 119 0
60 62 64 65 107 109 110 116 117 120 0
60 63 64 65 108 109 110 118 119 120 0
61 62 63 64 111 112 113 115 116 118 0
61 62 63 65 111 112 114 115 117 119 0
61 62 64 65 111 113 114 116 117 120 0
61 63 64 65 112 113 114 118 119 120 0
62 63 64 65 115 116 117 118 119 120 0
66 67 68 69 76 77 78 85 86 93 0
66 67 68 70 76 77 79 85 87 94 0
66 67 68 71 76 77 80 85 88 95 0
66 67 68 72 76 77 81 85 89 96 0
66 67 68 73 76 77 82 85 90 97 0
66 67 68 74 76 77 83 85 91 98 0
66 67 68 75 76 77 84 85 92 99 0
66 67 69 70 76 78 79 86 87 100 0
66 67 69 71 76 78 80 86 88 101 0
66 67 69 72 76 78 81 86 89 102 0
66 67 69 73 76 78 82 86 90 103 0
66 67 69 74 76 78 83 86 91 104 0
66 67 69 75 76 78 84 86 92 105 0
66 67 70 71 76 79 80 87 88 106 0
66 67 70 72 76 79 81 87 89 107 0
66 67 70 73 76 79 82 87 90 108 0
66 67 70 74 76 79 83 87 91 109 0
66 67 70 75 76 79 84 87 92 110 0
66 67 71 72 76 80 81 88 89 111 0
66 67 71 73 76 80 82 88 90 112 0
66 67 71 74 76 80 83 88 91 113 0
66 67 71 75 76 80 84 88 92 114 0
66 67 72 73 76 81 82 89 90 115 0
66 67 72 74 76 81 83 89 91 116 0
66 67 72 75 76 81 84 89 92 117 0
66 67 73 74 76 82 83 90 91 118 0
66 67 73 75 76 82 84 90 92 119 0
66 67 74 75 76 83 84 91 92 120 0
66 68 69 70 77 78 79 93 94 100 0
66 68 69 71 77 78 80 93 95 101 0
66 68 69 72 77 78 81 93 96 102 0
66 68 69 73 77 78 82 93 97 103 0
66 68 69 74 77 78 83 93 98 104 0
66 68 69 75 77 78 84 93 99 105 0
66 68 70 71 77 79 80 94 95 106 0
66 68 70 72 77 79 81 94 96 107 0
66 68 70 73 77 79 82 94 97 108 0
66 68 70 74 77 79 83 94 98 109 0
66 68 70 75 77 79 84 94 99 110 0
66 68 71 72 77 80 81 95 96 111 0
66 68 71 73 77 80 82 95 97 112 0
66 68 71 74 77 80 83 95 98 113 0
66 68 71 75 77 80 84 95 99 114 0
66 68 72 73 77 81 82 96 97 115 0
66 68 72 74 77 81 83 96 98 116 0
66 68 72 75 77 81 84 96 99 117 0
66 68 73 74 77 82 83 97 98 118 0
66 68 73 75 77 82 84 97 99 119 0
66 68 74 75 77 83 84 98 99 120 0
66 69 70 71 78 79 80 100 101 106 0
66 69 70 72 78 79 81 100 102 107 0
66 69 70 73 78 79 82 100 103 108 0
66 69 70 74 78 79 83 100 104 109 0
66 69 70 75 78 79 84 100 105 110 0
66 69 71 72 78 80 81 101 102 111 0
66 69 71 73 78 80 82 101 103 112 0
66 69 71 74 78 80 83 101 104 113 0
66 69 71 75 78 80 84 101 105 114 0
66 69 72 73 78 81 82 102 103 115 0
66 69 72 74 78 81 83 102 104 116 0
66 69 72 75 78 81 84 102 105 117 0
66 69 73 74 78 82 83 103 104 118 0
66 69 73 75 78 82 84 103 105 119 0
66 69 74 75 78 83 84 104 105 120 0
66 70 71 72 79 80 81 106 107 111 0
66 70 71 73 79 80 82 106 108 112 0
66 70 71 74 79 80 83 106 109 113 0
66 70 71 75 79 80 84 106 110 114 0
66 70 72 73 79 81 82 107 108 115 0
66 70 72 74 79 81 83 107 109 116 0
66 70 72 75 79 81 84 107 110 117 0
66 70 73 74 79 82 83 108 109 118 0
66 70 73 75 79 82 84 108 110 119 0
66 70 74 75 79 83 84 109 110 120 0
66 71 72 73 80 81 82 111 112 115 0
66 71 72 74 80 81 83 111 113 116 0
66 71 72 75 80 81 84 111 114 117 0
66 71 73 74 80 82 83 112 113 118 0
66 71 73 75 80 82 84 112 114 119 0
66 71 74 75 80 83 84 113 114 120 0
66 72 73 74 81 82 83 115 116 118 0
66 72 73 75 81 82 84 115 117 119 0
66 72 74 75 81 83 84 116 117 120 0
66 73 74 75 82 83 84 118 119 120 0
67 68 69 70 85 86 87 93 94 100 0
67 68 69 71 85 86 88 93 95 101 0
67 68 69 72 85 86 89 93 96 102 0
67 68 69 73 85 86 90 93 97 103 0
67 68 69 74 85 86 91 93 98 104 0
67 68 69 75 85 86 92 93 99 105 0
67 68 70 71 85 87 88 94 95 106 0
67 68 70 72 85 87 89 94 96 107 0
67 68 70 73 85 87 90 94 97 108 0
67 68 70 74 85 87 91 94 98 109 0
67 68 70 75 85 87 92 94 99 110 0
67 68 71 72 85 88 89 95 96 111 0
67 68 71 73 85 88 90 95 97 112 0
67 68 71 74 85 88 91 95 98 113 0
67 68 71 75 85 88 92 95 99 114 0
67 68 72 73 85 89 90 96 97 115 0
67 68 72 74 85 89 91 96 98 116 0
67 68 72 75 85 89 92 96 99 117 0
67 68 73 74 85 90 91 97 98 118 0
67 68 73 75 85 90 92 97 99 119 0
67 68 74 75 85 91 92 98 99 120 0
67 69 70 71 86 87 88 100 101 106 0
67 69 70 72 86 87 89 100 102 107 0
67 69 70 73 86 87 90 100 103 108 0
67 69 70 74 86 87 91 100 104 109 0
67 69 70 75 86 87 92 100 105 110 0
67 69 71 72 86 88 89 101 102 111 0
67 69 71 73 86 88 90 101 103 112 0
67 69 71 74 86 88 91 101 104 113 0
67 69 71 75 86 88 92 101 105 114 0
67 69 72 73 86 89 90 102 103 115 0
67 69 72 74 86 89 91 102 104 116 0
67 69 72 75 86 89 92 102 105 117 0
67 69 73 74 86 90 91 103 104 118 0
67 69 73 75 86 90 92 103 105 119 0
67 69 74 75 86 91 92 104 105 120 0
67 70 71 72 87 88 89 106 107 111 0
67 70 71 73 87 88 90 106 108 112 0
67 70 71 74 87 88 91 106 109 113 0
67 70 71 75 87 88 92 106 110 114 0
67 70 72 73 87 89 90 107 108 115 0
67 70 72 74 87 89 91 107 109 116 0
67 70 72 75 87 89 92 107 110 117 0
67 70 73 74 87 90 91 108 109 118 0
67 70 73 75 87 90 92 108 110 119 0
67 70 74 75 87 91 92 109 110 120 0
67 71 72 73 88 89 90 111 112 115 0
67 71 72 74 88 89 91 111 113 116 0
67 71 72 75 88 89 92 111 114 117 0
67 71 73 74 88 90 91 112 113 118 0
67 71 73 75 88 90 92 112 114 119 0
67 71 74 75 88 91 92 113 114 120 0
67 72 73 74 89 90 91 115 116 118 0
67 72 73 75 89 90 92 115 117 119 0
67 72 74 75 89 91 92 116 117 120 0
67 73 74 75 90 91 92 118 119 120 0
68 69 70 71 93 94 95 100 101 106 0
68 69 70 72 93 94 96 100 102 107 0
68 69 70 73 93 94 97 100 103 108 0
68 69 70 74 93 94 98 100 104 109 0
68 69 70 75 93 94 99 100 105 110 0
68 69 71 72 93 95 96 101 102 111 0
68 69 71 73 93 95 97 101 103 112 0
68 69 71 74 93 95 98 101 104 113 0
68 69 71 75 93 95 99 101 105 114 0
68 69 72 73 93 96 97 102 103 115 0
68 69 72 74 93 96 98 102 104 116 0
68 69 72 75 93 96 99 102 105 117 0
68 69 73 74 93 97 98 103 104 118 0
68 69 73 75 93 97 99 103 105 119 0
68 69 74 75 93 98 99 104 105 120 0
68 70 71 72 94 95 96 106 107 111 0
68 70 71 73 94 95 97 106 108 112 0
68 70 71 74 94 95 98 106 109 113 0
68 70 71 75 94 95 99 106 110 114 0
68 70 72 73 94 96 97 107 108 115 0
68 70 72 74 94 96 98 107 109 116 0
68 70 72 75 94 96 99 107 110 117 0
68 70 73 74 94 97 98 108 109 118 0
68 70 73 75 94 97 99 108 110 119 0
68 70 74 75 94 98 99 109 110 120 0
68 71 72 73 95 96 97 111 112 115 0
68 71 72 74 95 96 98 111 113 116 0
68 71 72 75 95 96 99 111 114 117 0
68 71 73 74 95 97 98 112 113 118 0
68 71 73 75 95 97 99 112 114 119 0
68 71 74 75 95 98 99 113 114 120 0
68 72 73 74 96 97 98 115 116 118 0
68 72 73 75 96 97 99 115 117 119 0
68 72 74 75 96 98 99 116 117 120 0
68 73 74 75 97 98 99 118 119 120 0
69 70 71 72 100 101 102 106 107 111 0
69 70 71 73 100 101 103 106 108 112 0
69 70 71 74 100 101 104 106 109 113 0
69 70 71 75 100 101 105 106 110 114 0
69 70 72 73 100 102 103 107 108 115 0
69 70 72 74 100 102 104 107 109 116 0
69 70 72 75 100 102 105 107 110 117 0
69 70 73 74 100 103 104 108 109 118 0
69 70 73 75 100 103 105 108 110 119 0
69 70 74 75 100 104 105 109 110 120 0
69 71 72 73 101 102 103 111 112 115 0
69 71 72 74 101 102 104 111 113 116 0
69 71 72 75 101 102 105 111 114 117 0
69 71 73 74 101 103 104 112 113 118 0
69 71 73 75 101 103 105 112 114 119 0
69 71 74 75 101 104 105 113 114 120 0
69 72 73 74 102 103 104 115 116 118 0
69 72 73 75 102 103 105 115 117 119 0
69 72 74 75 102 104 105 116 117 120 0
69 73 74 75 103 104 105 118 119 120 0
70 71 72 73 106 107 108 111 112 115 0
70 71 72 74 106 107 109 111 113 116 0
70 71 72 75 106 107 110 111 114 117 0
70 71 73 74 106 108 109 112 113 118 0
70 71 73 75 106 108 110 112 114 119 0
70 71 74 75 106 109 110 113 114 120 0
70 72 73 74 107 108 109 115 116 118 0
70 72 73 75 107 108 110 115 117 119 0
70 72 74 75 107 109 110 116 117 120 0
70 73 74 75 108 109 110 118 119 120 0
71 72 73 74 111 112 113 115 116 118 0
71 72 73 75 111 112 114 115 117 119 0
71 72 74 75 111 113 114 116 117 120 0
71 73 74 75 112 113 114 118 119 120 0
72 73 74 75 115 116 117 118 119 120 0
76 77 78 79 85 86 87 93 94 100 0
76 77 78 80 85 86 88 93 95 101 0
76 77 78 81 85 86 89 93 96 102 0
76 77 78 82 85 86 90 93 97 103 0
76 77 78 83 85 86 91 93 98 104 0
76 77 78 84 85 86 92 93 99 105 0
76 77 79 80 85 87 88 94 95 106 0
76 77 79 81 85 87 89 94 96 107 0
76 77 79 82 85 87 90 94 97 108 0
76 77 79 83 85 87 91 94 98 109 0
76 77 79 84 85 87 92 94 99 110 0
76 77 80 81 85 88 89 95 96 111 0
76 77 80 82 85 88 90 95 97 112 0
76 77 80 83 85 88 91 95 98 113 0
76 77 80 84 85 88 92 95 99 114 0
76 77 81 82 85 89 90 96 97 115 0
76 77 81 83 85 89 91 96 98 116 0
76 77 81 84 85 89 92 96 99 117 0
76 77 82 83 85 90 91 97 98 118 0
76 77 82 84 85 90 92 97 99 119 0
76 77 83 84 85 91 92 98 99 120 0
76 78 79 80 86 87 88 100 101 106 0
76 78 79 81 86 87 89 100 102 107 0
76 78 79 82 86 87 90 100 103 108 0
76 78 79 83 86 87 91 100 104 109 0
76 78 79 84 86 87 92 100 105 110 0
76 78 80 81 86 88 89 101 102 111 0
76 78 80 82 86 88 90 101 103 112 0
76 78 80 83 86 88 91 101 104 113 0
76 78 80 84 86 88 92 101 105 114 0
76 78 81 82 86 89 90 102 103 115 0
76 78 81 83 86 89 91 102 104 116 0
76 78 81 84 86 89 92 102 105 117 0
76 78 82 83 86 90 91 103 104 118 0
76 78 82 84 86 90 92 103 105 119 0
76 78 83 84 86 91 92 104 105 120 0
76 79 80 81 87 88 89 106 107 111 0
76 79 80 82 87 88 90 106 108 112 0
76 79 80 83 87 88 91 106 109 113 0
76 79 80 84 87 88 92 106 110 114 0
76 79 81 82 87 89 90 107 108 115 0
76 79 81 83 87 89 91 107 109 116 0
76 79 81 84 87 89 92 107 110 117 0
76 79 82 83 87 90 91 108 109 118 0
76 79 82 84 87 90 92 108 110 119 0
76 79 83 84 87 91 92 109 110 120 0
76 80 81 82 88 89 90 111 112 115 0
76 80 81 83 88 89 91 111 113 116 0
76 80 81 84 88 89 92 111 114 117 0
76 80 82 83 88 90 91 112 113 118 0
76 80 82 84 88 90 92 112 114 119 0
76 80 83 84 88 91 92 113 114 120 0
76 81 82 83 89 90 91 115 116 118 0
76 81 82 84 89 90 92 115 117 119 0
76 81 83 84 89 91 92 116 117 120 0
76 82 83 84 90 91 92 118 119 120 0
77 78 79 80 93 94 95 100 101 106 0
77 78 79 81 93 94 96 100 102 107 0
77 78 79 82 93 94 97 100 103 108 0
77 78 79 83 93 94 98 100 104 109 0
77 78 79 84 93 94 99 100 105 110 0
77 78 80 81 93 95 96 101 102 111 0
77 78 80 82 93 95 97 101 103 112 0
77 78 80 83 93 95 98 101 104 113 0
77 78 80 84 93 95 99 101 105 114 0
77 78 81 82 93 96 97 102 103 115 0
77 78 81 83 93 96 98 102 104 116 0
77 78 81 84 93 96 99 102 105 117 0
77 78 82 83 93 97 98 103 104 118 0
77 78 82 84 93 97 99 103 105 119 0
77 78 83 84 93 98 99 104 105 120 0
77 79 80 81 94 95 96 106 107 111 0
77 79 80 82 94 95 97 106 108 112 0
77 79 80 83 94 95 98 106 109 113 0
77 79 80 84 94 95 99 106 110 114 0
77 79 81 82 94 96 97 107 108 115 0
77 79 81 83 94 96 98 107 109 116 0
77 79 81 84 94 96 99 107 110 117 0
77 79 82 83 94 97 98 108 109 118 0
77 79 82 84 94 97 99 108 110 119 0
77 79 83 84 94 98 99 109 110 120 0
77 80 81 82 95 96 97 111 112 115 0
77 80 81 83 95 96 98 111 113 116 0
77 80 81 84 95 96 99 111 114 117 0
77 80 82 83 95 97 98 112 113 118 0
77 80 82 84 95 97 99 112 114 119 0
77 80 83 84 95 98 99 113 114 120 0
77 81 82 83 96 97 98 115 116 118 0
77 81 82 84 96 97 99 115 117 119 0
77 81 83 84 96 98 99 116 117 120 0
77 82 83 84 97 98 99 118 119 120 0
78 79 80 81 100 101 102 106 107 111 0
78 79 80 82 100 101 103 106 108 112 0
78 79 80 83 100 101 104 106 109 113 0
78 79 80 84 100 101 105 106 110 114 0
78 79 81 82 100 102 103 107 108 115 0
78 79 81 83 100 102 104 107 109 116 0
78 79 81 84 100 102 105 107 110 117 0
78 79 82 83 100 103 104 108 109 118 0
78 79 82 84 100 103 105 108 110 119 0
78 79 83 84 100 104 105 109 110 120 0
78 80 81 82 101 102 103 111 112 115 0
78 80 81 83 101 102 104 111 113 116 0
78 80 81 84 101 102 105 111 114 117 0
78 80 82 83 101 103 104 112 113 118 0
78 80 82 84 101 103 105 112 114 119 0
78 80 83 84 101 104 105 113 114 120 0
78 81 82 83 102 103 104 115 116 118 0
78 81 82 84 102 103 105 115 117 119 0
78 81 83 84 102 104 105 116 117 120 0
78 82 83 84 103 104 105 118 119 120 0
79 80 81 82 106 107 108 111 112 115 0
79 80 81 83 106 107 109 111 113 116 0
79 80 81 84 106 107 110 111 114 117 0
79 80 82 83 106 108 109 112 113 118 0
79 80 82 84 106 108 110 112 114 119 0
79 80 83 84 106 109 110 113 114 120 0
79 81 82 83 107 108 109 115 116 118 0
79 81 82 84 107 108 110 115 117 119 0
79 81 83 84 107 109 110 116 117 120 0
79 82 83 84 108 109 110 118 119 120 0
80 81 82 83 111 112 113 115 116 118 0
80 81 82 84 111 112 114 115 117 119 0
80 81 83 84 111 113 114 116 117 120 0
80 82 83 84 112 113 114 118 119 120 0
81 82 83 84 115 116 117 118 119 120 0
85 86 87 88 93 94 95 100 101 106 0
85 86 87 89 93 94 96 100 102 107 0
85 86 87 90 93 94 97 100 103 108 0
85 86 87 91 93 94 98 100 104 109 0
85 86 87 92 93 94 99 100 105 110 0
85 86 88 89 93 95 96 101 102 111 0
85 86 88 90 93 95 97 101 103 112 0
85 86 88 91 93 95 98 101 104 113 0
85 86 88 92 93 95 99 101 105 114 0
85 86 89 90 93 96 97 102 103 115 0
85 86 89 91 93 96 98 102 104 116 0
85 86 89 92 93 96 99 102 105 117 0
85 86 90 91 93 97 98 103 104 118 0
85 86 90 92 93 97 99 103 105 119 0
85 86 91 92 93 98 99 104 105 120 0
85 87 88 89 94 95 96 106 107 111 0
85 87 88 90 94 95 97 106 108 112 0
85 87 88 91 94 95 98 106 109 113 0
85 87 88 92 94 95 99 106 110 114 0
85 87 89 90 94 96 97 107 108 115 0
85 87 89 91 94 96 98 107 109 116 0
85 87 89 92 94 96 99 107 110 117 0
85 87 90 91 94 97 98 108 109 118 0
85 87 90 92 94 97 99 108 110 119 0
85 87 91 92 94 98 99 109 110 120 0
85 88 89 90 95 96 97 111 112 115 0
85 88 89 91 95 96 98 111 113 116 0
85 88 89 92 95 96 99 111 114 117 0
85 88 90 91 95 97 98 112 113 118 0
85 88 90 92 95 97 99 112 114 119 0
85 88 91 92 95 98 99 113 114 120 0
85 89 90 91 96 97 98 115 116 118 0
85 89 90 92 96 97 99 115 117 119 0
85 89 91 92 96 98 99 116 117 120 0
85 90 91 92 97 98 99 118 119 120 0
86 87 88 89 100 101 102 106 107 111 0
86 87 88 90 100 101 103 106 108 112 0
86 87 88 91 100 101 104 106 109 113 0
86 87 88 92 100 101 105 106 110 114 0
86 87 89 90 100 102 103 107 108 115 0
86 87 89 91 100 102 104 107 109 116 0
86 87 89 92 100 102 105 107 110 117 0
86 87 90 91 100 103 104 108 109 118 0
86 87 90 92 100 103 105 108 110 119 0
86 87 91 92 100 104 105 109 110 120 0
86 88 89 90 101 102 103 111 112 115 0
86 88 89 91 101 102 104 111 113 116 0
86 88 89 92 101 102 105 111 114 117 0
86 88 90 91 101 103 104 112 113 118 0
86 88 90 92 101 103 105 112 114 119 0
86 88 91 92 101 104 105 113 114 120 0
86 89 90 91 102 103 104 115 116 118 0
86 89 90 92 102 103 105 115 117 119 0
86 89 91 92 102 104 105 116 117 120 0
86 90 91 92 103 104 105 118 119 120 0
87 88 89 90 106 107 108 111 112 115 0
87 88 89 91 106 107 109 111 113 116 0
87 88 89 92 106 107 110 111 114 117 0
87 88 90 91 106 108 109 112 113 118 0
87 88 90 92 106 108 110 112 114 119 0
87 88 91 92 106 109 110 113 114 120 0
87 89 90 91 107 108 109 115 116 118 0
87 89 90 92 107 108 110 115 117 119 0
87 89 91 92 107 109 110 116 117 120 0
87 90 91 92 108 109 110 118 119 120 0
88 89 90 91 111 112 113 115 116 118 0
88 89 90 92 111 112 114 115 117 119 0
88 89 91 92 111 113 114 116 117 120 0
88 90 91 92 112 113 114 118 119 120 0
89 90 91 92 115 116 117 118 119 120 0
93 94 95 96 100 101 102 106 107 111 0
93 94 95 97 100 101 103 106 108 112 0
93 94 95 98 100 101 104 106 109 113 0
93 94 95 99 100 101 105 106 110 114 0
93 94 96 97 100 102 103 107 108 115 0
93 94 96 98 100 102 104 107 109 116 0
93 94 96 99 100 102 105 107 110 117 0
93 94 97 98 100 103 104 108 109 118 0
93 94 97 99 100 103 105 108 110 119 0
93 94 98 99 100 104 105 109 110 120 0
93 95 96 97 101 102 103 111 112 115 0
93 95 96 98 101 102 104 111 113 116 0
93 95 96 99 101 102 105 111 114 117 0
93 95 97 98 101 103 104 112 113 118 0
93 95 97 99 101 103 105 112 114 119 0
93 95 98 99 101 104 105 113 114 120 0
93 96 97 98 102 103 104 115 116 118 0
93 96 97 99 102 103 105 115 117 119 0
93 96 98 99 102 104 105 116 117 120 0
93 97 98 99 103 104 105 118 119 120 0
94 95 96 97 106 107 108 111 112 115 0
94 95 96 98 106 107 109 111 113 116 0
94 95 96 99 106 107 110 111 114 117 0
94 95 97 98 106 108 109 112 113 118 0
94 95 97 99 106 108 110 112 114 119 0
94 95 98 99 106 109 110 113 114 120 0
94 96 97 98 107 108 109 115 116 118 0
94 96 97 99 107 108 110 115 117 119 0
94 96 98 99 107 109 110 116 117 120 0
94 97 98 99 108 109 110 118 119 120 0
95 96 97 98 111 112 113 115 116 118 0
95 96 97 99 111 112 114 115 117 119 0
95 96 98 99 111 113 114 116 117 120 0
95 97 98 99 112 113 114 118 119 120 0
96 97 98 99 115 116 117 118 119 120 0
100 101 102 103 106 107 108 111 112 115 0
100 101 102 104 106 107 109 111 113 116 0
100 101 102 105 106 107 110 111 114 117 0
100 101 103 104 106 108 109 112 113 118 0
100 101 103 105 106 108 110 112 114 119 0
100 101 104 105 106 109 110 113 114 120 0
100 102 103 104 107 108 109 115 116 118 0
100 102 103 105 107 108 110 115 117 119 0
100 102 104 105 107 109 110 116 117 120 0
100 103 104 105 108 109 110 118 119 120 0
101 102 103 104 111 112 113 115 116 118 0
101 102 103 105 111 112 114 115 117 119 0
101 102 104 105 111 113 114 116 117 120 0
101 103 104 105 112 113 114 118 119 120 0
102 103 104 105 115 116 117 118 119 120 0
106 107 108 109 111 112 113 115 116 118 0
106 107 108 110 111 112 114 115 117 119 0
106 107 109 110 111 113 114 116 117 120 0
106 108 109 110 112 113 114 118 119 120 0
107 108 109 110 115 116 117 118 119 120 0
111 112 113 114 115 116 117 118 119 120 0
